 O Si  H Mo  S Mo  S Mo  S Mo  S Mo  S M
   1.00000000000000     
    21.3948993682999991    0.0000000000000000    0.0000000000000000
     0.0000000000000000   21.3948993682999991    0.0000000000000000
     0.0000000000000000    0.0000000000000000   34.1699981689000012
   O    Si   H    Mo   S 
   236   102    64    10    22
Direct
  0.2816316427850962  0.7101067063015349  0.1014190162305593
  0.6108463712535660  0.6262075656343336  0.2005237721477853
  0.1514336616060845  0.3900089474981090  0.0912626434351156
  0.3794440477507562  0.4403993908563748  0.1409432099025915
  0.6768121660803622  0.8496613223250918  0.1349282363161939
  0.1040809697059215  0.4698334545538537  0.3511013202271782
  0.0038948871462591  0.7592971769989320  0.3008265544531245
  0.6583589992843620  0.1431591478659611  0.1956402624648031
  0.2147474928577990  0.9167277335092837  0.2056614136291740
  0.8444347653966756  0.5344962747027014  0.1019300239309229
  0.4119842077441377  0.7702724101141252  0.2083177334237907
  0.5182169413291162  0.5529986519457103  0.2240610195364470
  0.1143242238376102  0.5129117647747145  0.2141645234690644
  0.6080725570023222  0.4968341388104250  0.3334663506988592
  0.4353774267121348  0.6489374193495928  0.2211346514157728
  0.1277630349707186  0.4174449105960821  0.2801534465799090
  0.5196749190280321  0.7368260065586759  0.2365414132255559
  0.3189518086293607  0.9826082311676124  0.1991487460864450
  0.3231259302668814  0.8575362320685519  0.1904902487074327
  0.8123993853169938  0.8748288934864565  0.2736341019916915
  0.9770168334497513  0.2476017248591520  0.3099741845827841
  0.9862033571919456  0.0421232701242009  0.2921389908851817
  0.0025401370426072  0.0205104272875807  0.1769122385150985
  0.0987607549142397  0.2959574527362082  0.1259773607077560
  0.5917053899836303  0.7332167627421661  0.2995085411304876
  0.4273939088623858  0.5799659345690521  0.3389236707177887
  0.8012690188538557  0.3275978184821318  0.1645171556896279
  0.0653058405793466  0.2047095097310984  0.2625061199571120
  0.5207559097575295  0.6921019837725400  0.0876353430018397
  0.1521266253592440  0.6127553337797566  0.2511912750528919
  0.5525533420849101  0.1781203507949084  0.2315500270776048
  0.7183333091582131  0.4133876176959256  0.1914370287296533
  0.5095444259236586  0.9500443105377645  0.1219919161161085
  0.2520092374266223  0.8625843528704047  0.1084961222259292
  0.6272912889839307  0.7494293366999976  0.1740465217492480
  0.7417390997679187  0.9058239977244100  0.0784809817313358
  0.6919899016524397  0.8515301107711604  0.2790136100758866
  0.7206965946239151  0.6824801300200504  0.2004549446009014
  0.2224971722452875  0.2839637049455647  0.1800333542121749
  0.1128537002818961  0.0611200858873311  0.1017157925799392
  0.5638858196443211  0.1861082064299896  0.3200181455102767
  0.7779265242612191  0.6712657735489732  0.3479776692504328
  0.2074875767716098  0.2869178745921611  0.2565719463337218
  0.6152345137967997  0.5374353297201420  0.1289008437538326
  0.3307831737940047  0.4678019860646453  0.2105628415940882
  0.3163794431559734  0.3340643186839609  0.1389406616462467
  0.3026013665687071  0.9707816662088050  0.1224403348684564
  0.4993851668705169  0.5873882088821981  0.1256072475432739
  0.8677236872517529  0.4625833734453703  0.3025268928686563
  0.5914124527685725  0.0661331573598994  0.2937130363696266
  0.4640815435409490  0.1372528154549292  0.1832375765799256
  0.4791428391366069  0.7926631233722440  0.3033453763165763
  0.5129527858666715  0.4166395533343719  0.3052475458912233
  0.1000137164350337  0.8418814615788821  0.3041511938096351
  0.3083417969288477  0.4122289096869898  0.2761036925842772
  0.7798783574615329  0.1334972908756518  0.3412822742996894
  0.4905820550828189  0.7014586466023051  0.1624672381687275
  0.9882280552499780  0.8956753643363163  0.1686541635693302
  0.8833857604368768  0.7328635035237688  0.3302558738147331
  0.6127082522723502  0.5764379040334310  0.2710078636098096
  0.7928052846689161  0.8223769506362071  0.1263267910444743
  0.8857481435942982  0.3358975141960909  0.3096967250175436
  0.8208308410437519  0.4595850021428655  0.1627326208813356
  0.6381054926435780  0.2633902008144975  0.2252173814884049
  0.8992499799937170  0.8140829673053983  0.1603661564563593
  0.8713427685575804  0.0897316380382794  0.2975250393805400
  0.4442001108277408  0.9127657494303382  0.3166597753756299
  0.1057982379882439  0.0584388494690141  0.3076168378075566
  0.0336141938845598  0.4252699091056179  0.2260756860408324
  0.5704236916320831  0.8416864600027545  0.2646397906250054
  0.0034742207479250  0.1318593720207771  0.2129564379387772
  0.2178768996205291  0.2855410213167988  0.1027975371895800
  0.4382283576607667  0.8693555339322547  0.1638680700976711
  0.4123377504254979  0.0072471948716335  0.1514038319802277
  0.1248650174519960  0.1280071983768498  0.2141515930286434
  0.1004517426997388  0.9387916452125983  0.1775242269121274
  0.3035976770237307  0.9015363689231214  0.2597746300721675
  0.3619059823201281  0.7774590442173135  0.1394854809026125
  0.5897273439459845  0.0443101798391229  0.2164287587136700
  0.3173357134116142  0.0855801122961523  0.1507915181020428
  0.4066901958606683  0.3507841801461911  0.2449748167842015
  0.5154657260803055  0.2081476130541790  0.1284948447935617
  0.6963272691453332  0.3276594581233288  0.0612590587365800
  0.8385120917578834  0.7072113813232680  0.1504607502388732
  0.8360787668513204  0.6710073591043372  0.2255563064140385
  0.6209635843715309  0.2571422878667099  0.1053058524050810
  0.3787180764656828  0.7666988262267221  0.0655100904566255
  0.4205150152177941  0.0364486980079801  0.3050525238794270
  0.3156143685889600  0.5455384523531693  0.3137474862666193
  0.2455624422538261  0.1235335418508917  0.2135350721802191
  0.7397740343908895  0.5492346960656396  0.1436307628130517
  0.6295093159117670  0.0584977558115507  0.1430196467124485
  0.8136473013768372  0.9625786665368232  0.2177592851044344
  0.1652877216842033  0.3645451235917807  0.3470804827580045
  0.2432569326953291  0.6932127650236534  0.3151548377700243
  0.0429459398185782  0.7205247169538630  0.1513528458065503
  0.6676818252071266  0.6499071848928555  0.1339527910865490
  0.7069639663669222  0.0231332435375677  0.2003403361811223
  0.6452056058181723  0.8643499286823209  0.2067245531195698
  0.4099004822832655  0.3541064913652394  0.0870493192031853
  0.5219518024712787  0.2628378987073146  0.0575943710731761
  0.9087358727130895  0.8796178422082264  0.2264058407431156
  0.5291240684377606  0.3365804945167081  0.1196854564057128
  0.4037130561354851  0.1577210796441644  0.1164696957086253
  0.7686569132447353  0.7681101108297969  0.2472190692075785
  0.6338349578441509  0.9801903084755316  0.0833389916681526
  0.2174588347430147  0.4707658311412496  0.3237384883033699
  0.0531445883789235  0.6788312544420085  0.2228362680761617
  0.8876512216275393  0.9689421977160806  0.2799045447095443
  0.1837796660097485  0.0302716815896392  0.1799725237109499
  0.3352008506123102  0.0894814693387587  0.2625234127779317
  0.0410573845940266  0.6157333634057188  0.2891678792483877
  0.9181071634836947  0.1100118823454980  0.1593084512175647
  0.4462267254228764  0.1412821286462787  0.2599430969444808
  0.1817679307940529  0.1381367816773818  0.1449068258519111
  0.1311931698191172  0.9880561237894545  0.2446786147660049
  0.3211726492861773  0.8831842924943777  0.3357706547591494
  0.2955759192614169  0.1361504337641756  0.0797416040660392
  0.8648213892798667  0.2711719188561089  0.1078371475559799
  0.8845161309175087  0.7623888807441637  0.0887098488328678
  0.1148651208441797  0.7170161524266868  0.2862525856024035
  0.4738713586704019  0.8379953065429936  0.0925358104918168
  0.4319896034242957  0.0124263939078799  0.0726116605348747
  0.2193578639151730  0.8399428913536897  0.3047494632678709
  0.8075125334636460  0.0610979208895552  0.1678791230798497
  0.9431692679016767  0.6705578864754800  0.1866401385239007
  0.3214172953452963  0.2871745015864174  0.2863245983570318
  0.9147806564277540  0.0538176928667402  0.2285044007450193
  0.7981847114154108  0.5636409758473243  0.3102082828841072
  0.3584592902151943  0.6596143774797335  0.2942737450765345
  0.5019151643924240  0.2958407498519846  0.3324017593517909
  0.6596954054886988  0.1229629455235956  0.3463438646405357
  0.9188007350080170  0.5787205447837499  0.2931746437277452
  0.9708176511504705  0.5492930861502214  0.0998763743942497
  0.5112559590888484  0.9851317375949769  0.2660985730297873
  0.4020632261648450  0.6672484682303207  0.1119617173787273
  0.3848489750186434  0.1462700768632935  0.3275827564031753
  0.4773325410341693  0.3667069729072021  0.1842129052575670
  0.0205236283245398  0.5050948620992929  0.1641490958905384
  0.0809813436238736  0.4919384718741405  0.0962615185308638
  0.2057959012728500  0.5796566378902914  0.1836613811171679
  0.9810480647976272  0.2551810942882674  0.1326052610052697
  0.1936720254525719  0.4878859991424407  0.1307217940849251
  0.3647318733949222  0.8931071955638563  0.0754588829534739
  0.3065933353327838  0.5376903620311171  0.1475350037787891
  0.7417201259326396  0.4035700585241688  0.1152057673432858
  0.1546214918701311  0.6977753672035919  0.1172319807853965
  0.5609548940788257  0.6156118753586298  0.3352000523512584
  0.6151510997857679  0.2959053121477403  0.2997167325589146
  0.4525629438394182  0.2475478335714291  0.2151466006109535
  0.2582239045807845  0.1791467938222811  0.2812699752977643
  0.6840006618392179  0.5942000547268739  0.3333465616614689
  0.5313523323986250  0.3264634398608818  0.2474756734439221
  0.3992863020645458  0.3647582713922899  0.3208343409053252
  0.2987900311794715  0.2106257424516546  0.1405911245408162
  0.6000138059058580  0.3917947390376756  0.1744649688346139
  0.5375153355688814  0.5152994335072006  0.0678308234632516
  0.2372903020672361  0.3917074053077087  0.2157098921309739
  0.6387969983948103  0.3853790462053304  0.2469578580665555
  0.0386640477233085  0.9630635227354516  0.1123254815441776
  0.8522118748473546  0.5851582242286966  0.1711437062780110
  0.6914357246633112  0.5716258562994401  0.0728236476829089
  0.6295025591925801  0.4989218806570513  0.2123073153357248
  0.0711311628671287  0.1747363831761655  0.1162142787588990
  0.9113280260069313  0.2673265522462181  0.3746447051872264
  0.8353838109009658  0.1151852697210831  0.1014365985227406
  0.4999346538091228  0.0792898251409842  0.1198061580622358
  0.6290404456439606  0.9526108779500038  0.2629341954931492
  0.2263161362869713  0.6002315602954408  0.1067861090546417
  0.0662472852321430  0.2292424982471321  0.1867243251691306
  0.7625856911128187  0.9416623819672008  0.1510361278822561
  0.8217290328074980  0.1929369838215237  0.1618801162552150
  0.2233242353378548  0.2610114831630404  0.3320451942186488
  0.0253253498498915  0.1113369235433106  0.3539175246248327
  0.7246103862457810  0.0616623058917662  0.0937961187721825
  0.3042196808433208  0.4145659832098162  0.0789991292206970
  0.7710265310240575  0.7903348048393105  0.3242175961571346
  0.0729004645246662  0.6042812765014058  0.1290361468392474
  0.8599598313193562  0.2134792944538694  0.3125224557862999
  0.1256459296008683  0.3463367646307747  0.2146893726074394
  0.0422480415966509  0.3278345493754216  0.2712126770120643
  0.6580003778211021  0.1638099431042972  0.2711894038995042
  0.2282385969470221  0.5074966556955633  0.2455261534957100
  0.7394184269987448  0.6548261629220639  0.2745212255585804
  0.7421808611783994  0.2505671575866855  0.1163133270396631
  0.0066264529431854  0.4985986037559981  0.3081769695786340
  0.2194848368358046  0.5859294529570136  0.3568743491511444
  0.3215690660217682  0.7819454598242661  0.2861910741621501
  0.0981708592343501  0.2621635109598123  0.3273308253268347
  0.4083661347659436  0.5543095341069771  0.2633975164418809
  0.7334578935605919  0.0208016632813044  0.3541756592619689
  0.4158293005738578  0.5400641008545867  0.1845965514162783
  0.0488311327425949  0.6926690598124068  0.0756941201816735
  0.9952426447118642  0.5413350279088924  0.2352190792700391
  0.5180617471369261  0.4614832523504385  0.1376279841609598
  0.9881722920167085  0.7847908277997518  0.2081501640602188
  0.1706236823178962  0.9527551088605193  0.3126384406478138
  0.5578213174262334  0.8445529588063804  0.1505729160608276
  0.2193132627662231  0.0577603114365093  0.2790201424372495
  0.3415351039424135  0.7295540422833097  0.3569620042945253
  0.2911498321021306  0.4955304841861066  0.3848234634458305
  0.4793584478805623  0.3940847052683984  0.3771585059812233
  0.1541366797353691  0.2721734074820438  0.3969743847866926
  0.6036563072255509  0.2630695810269716  0.3750320627101906
  0.7260771960964788  0.1042127209856508  0.4113806847474918
  0.8995930015916318  0.1337742419299120  0.3677922801455051
  0.8210209518710544  0.7640066464200405  0.3937638309292480
  0.8813118141182653  0.5376513148281024  0.3648216851104168
  0.8684238664214861  0.4040633144588198  0.3715160656087166
  0.7721181740855214  0.3913290959150869  0.3181260256197276
  0.0083383144378727  0.5375740874326437  0.3802492311855635
  0.9985466957505341  0.4121754114299501  0.3658495719865443
  0.5449672934097386  0.8656841509148054  0.3534819495630225
  0.0946537756477792  0.7584414501187571  0.3591000320474070
  0.1548078872968960  0.8772277204052655  0.3709607370778749
  0.0330409500986140  0.9823837682288029  0.3514906497739162
  0.4318338178587391  0.8229701921317136  0.3723671886533522
  0.5209255682715885  0.9933446086695893  0.3454426209735841
  0.6592463290310866  0.4448422155886418  0.0610154975676883
  0.7763009463494521  0.4204815522104537  0.0404922786048348
  0.6878181706181423  0.2032118850187210  0.0517308731145398
  0.1270829174574913  0.2875060935187427  0.0494948098588153
  0.1794385898283417  0.4940135083180567  0.0514060216272541
  0.4333592465776949  0.8504595300117218  0.0184284971832732
  0.2047639326106764  0.6786733618902878  0.0460821831599870
  0.2628071921626374  0.9493759849969742  0.0499577718475053
  0.9008112027269300  0.5823593119987981  0.0390035131715952
  0.9081721182143202  0.4607480486226130  0.0580263441319076
  0.8218631344849117  0.0090002627354526  0.0577004267701844
  0.7816497093305230  0.1221546054424738  0.0339200377269639
  0.1685142871330450  0.1621369798120449  0.0686925160004826
  0.0248638880293835  0.0291918104905966  0.0468888568534863
  0.1293122650692818  0.9651123609921953  0.0562180589141110
  0.9535257348416454  0.2792417037995669  0.0561139796526811
  0.9456628440260644  0.3682312362368310  0.1133538243521269
  0.6126979506392962  0.1025991384148544  0.0693312603067829
  0.3527990976829629  0.3856703239373392  0.1120534214528794
  0.2164371528416041  0.6719654078055292  0.0931265231248068
  0.3164097503778934  0.7169517554633219  0.3115226179072869
  0.3558959443194720  0.7272625082628742  0.1044779071293548
  0.2932464620873415  0.8525925001833230  0.2960545908271448
  0.4446900581569724  0.5737001766368625  0.2232990695281138
  0.3971917553919236  0.1040730009919865  0.2885230476874686
  0.6277560556410881  0.1873663194143064  0.2295858454446348
  0.9158673665723805  0.0393448235583277  0.2753563381960951
  0.0764304253412347  0.7704355156663701  0.3124563288166730
  0.8124911071187521  0.7397003803564048  0.3488802314169527
  0.8143453572412279  0.5317062001353329  0.1460580546489791
  0.4119156422290142  0.8358745074789157  0.0632285215770756
  0.5316523667803094  0.3910105823815727  0.1538048730268689
  0.4730754514480249  0.3670897737179989  0.3329729587031787
  0.6545076431570968  0.6781378691265292  0.1777774401634989
  0.4646634708408134  0.7148619848396418  0.2069290758870631
  0.7720699094780366  0.3990438699607448  0.1586012538973396
  0.8527058143026430  0.7765069341410841  0.1317789522076944
  0.8556188518873853  0.9218006436195502  0.2484156554977312
  0.8674244445881867  0.5357268789194501  0.3173780063072000
  0.6181291300701167  0.1348044982032514  0.3076884884108117
  0.7738100165610814  0.9971476610550065  0.1836640534875507
  0.5935175695085518  0.5635156839219650  0.2259271976810416
  0.6167686200922551  0.5678080877317025  0.3178935477736566
  0.9604170924466057  0.0782115514981442  0.1938202066186656
  0.3289108214060240  0.1470406826110926  0.1229983708706321
  0.2901441894770682  0.9151685737569740  0.2136553917903687
  0.7440750980235858  0.8808512712732334  0.1241347245077421
  0.7658343856803815  0.6940312256923782  0.2375190348774619
  0.9468062436384957  0.8441563723161715  0.1918691104388466
  0.7252586328468394  0.0951677227743475  0.3638412984669352
  0.1606946439335510  0.8793039976898953  0.3231735689084552
  0.0750712257298059  0.0054863986370062  0.0797525222967204
  0.4663353408778913  0.3215805755052455  0.2220664735318134
  0.0463050652260975  0.2601933444300972  0.2927888920169262
  0.4780891768991528  0.1760126331976681  0.2229223857522541
  0.1988242431762473  0.3266299887945346  0.2162302643083589
  0.0902534027126418  0.6555887374703553  0.2617643884659493
  0.1337768219974880  0.1336056570893440  0.1074629633770295
  0.0407868697452695  0.4960219781112434  0.2093895592136280
  0.3838211985279204  0.8191091218948854  0.1763625281091744
  0.4731835136998399  0.9823365631539879  0.3079113188783594
  0.6341971806369253  0.8778349269615899  0.2533955941028478
  0.2642502586391825  0.2784662142034251  0.1402536890460975
  0.6490480429864829  0.0530795875097936  0.0968923441761007
  0.5816572350884071  0.0121194976132569  0.2593400675436967
  0.1525042111230898  0.4653177404111146  0.0924535762689517
  0.5421971897259547  0.5257298500061502  0.1149825769454983
  0.4634505346130939  0.0122647915787774  0.1162083416804395
  0.8082274960690919  0.2608454703646128  0.1388994080021124
  0.6884348289739517  0.2606678782587325  0.0833293501116292
  0.5702085156104466  0.2603389787868091  0.3321406552489852
  0.4755421463937541  0.8478436638837226  0.3369377707207105
  0.0650789539967449  0.1739940172891925  0.2192634998891765
  0.1572303942255367  0.0147982056027868  0.2862859433866675
  0.8444050042042567  0.1212880493010732  0.1488171843531784
  0.9907907090164486  0.5593994317681068  0.2813310458720697
  0.2941416896605287  0.9176875197600326  0.0886896188413364
  0.8526273681485996  0.1421440794785579  0.3294786431844040
  0.2605506247706370  0.5250159125370810  0.3446275136771525
  0.0320495268283557  0.9556511581383352  0.1596783446205336
  0.1582519355866124  0.9677828282871913  0.2021090677330987
  0.2631773657912969  0.1118840456911452  0.2594370383939348
  0.0370041873428356  0.5375460458044674  0.1224132234380632
  0.7909131450871995  0.0748609825578453  0.0720444776377233
  0.3574911802383456  0.3542163035251307  0.2815102284690395
  0.0802170466322121  0.6787945038612555  0.1189838804594504
  0.1841669929941107  0.1053306968924021  0.1879817781511775
  0.2743624214943916  0.4466324577190014  0.2385075566575073
  0.1490676828040457  0.3147279994249103  0.0921178076292005
  0.5398133869526125  0.7745790717877422  0.2763232743616025
  0.2525783158515031  0.2532784394661717  0.2886198940893113
  0.7195081131543312  0.3991741561188492  0.0694761913376646
  0.8679768911416050  0.6579592097681908  0.1828243095267465
  0.4951771040857159  0.8758187852030509  0.1325495710384299
  0.3774777097297120  0.5858348666735664  0.3027568056344942
  0.6472744348238069  0.4250937782171064  0.2059013498928640
  0.8474123545639948  0.3975323505757445  0.3244179767676029
  0.7610273305106489  0.8211109930467940  0.2811317444529123
  0.6267632273777959  0.8254744144187226  0.1673219845717206
  0.6071813220954737  0.3170022854566781  0.2540748128281787
  0.4723101947575342  0.1462599055365787  0.1361246955621674
  0.5461012488690201  0.2654473748517054  0.1028139219258474
  0.4779852205548514  0.6608118769231091  0.1221450365012716
  0.0291440644297481  0.4777600603427725  0.3517814022050317
  0.9091568540934595  0.2679571414624932  0.3263490215522566
  0.0369818913783842  0.0489276026679438  0.3276303927488388
  0.3367685691719201  0.0118807464935822  0.1562497970202902
  0.3583228421300463  0.4960858598706820  0.1704410058752995
  0.1587618139700608  0.2891933892856313  0.3506511858196878
  0.1537197545416071  0.4301407190700815  0.3247718172778034
  0.6788013404593387  0.5772633544218090  0.1203651789953716
  0.2325127812830241  0.5509729313155221  0.1424802117053372
  0.1761506786277782  0.5531667033403804  0.2244871516189137
  0.0056291140664068  0.7141396064649940  0.1930491648430775
  0.7497901144587781  0.6212714936588029  0.3166632070494893
  0.9370844223199828  0.2945416789071627  0.1021063874418577
  0.6476791766662200  0.0672949066826383  0.1883996515130230
  0.0831336895514828  0.3797965415436775  0.2484732397575275
  0.9075727246056062  0.5334750820129972  0.0755518322902459
  0.0540009869055735  0.2391706477040142  0.1402070205095026
  0.7324315718994756  0.5835984139147118  0.0631323459659531
  0.5655293323642874  0.4830825891000908  0.0575907531932680
  0.3225234168445681  0.4134129216260199  0.0529917446356077
  0.4519310456254632  0.3533149603593661  0.0984737853285699
  0.4704830010729948  0.5936250081497162  0.3341965090637402
  0.5603859269556306  0.6197477933381323  0.3637718049334904
  0.5744088394113012  0.4698042003358660  0.3232336719436103
  0.2087978294136163  0.7130056617462023  0.3010207572540646
  0.3092656758478110  0.7433154646308885  0.3750243199799087
  0.2250979289420014  0.6240514827110905  0.3409389394818980
  0.2951666908359488  0.4503420012865603  0.3852168363168193
  0.5210451196090131  0.4018645282337934  0.2786594943537201
  0.4686086810751494  0.4376901129924490  0.3820378020815893
  0.1344659634296180  0.2327939687514212  0.4037528031491845
  0.5782254062505937  0.6942138985248044  0.3121215961117197
  0.5907741758713881  0.2965074474253227  0.3926834786566600
  0.3801234230273636  0.1910793510366755  0.3242096235203958
  0.7126936489019839  0.1439174377632395  0.4221846839165455
  0.9003564415519666  0.1707331124545712  0.3847688305770322
  0.8940819727273788  0.6935982647101441  0.3175342903409487
  0.7874980057519421  0.7886456350938683  0.4049548691965744
  0.9247676377361571  0.5450129974667729  0.3735347135344445
  0.7506657323702091  0.3522164428999591  0.3230572050005519
  0.8620093483589649  0.4464452501327304  0.3818394784998007
  0.0248756109103007  0.5383450848463583  0.4066981032415796
  0.9529733385910226  0.4088483053904406  0.3696699895134998
  0.9675434124198029  0.7694879611123890  0.3168701343282876
  0.0934845416808291  0.7157464278742434  0.3686180260248456
  0.1364072921451654  0.8381081593986958  0.3802409150166669
  0.9814434666891000  0.1192304002891102  0.3613500314212763
  0.0653003149443650  0.9725396329147459  0.3705182817134434
  0.5509351865384620  0.9108165668699416  0.3569221610217909
  0.4003028822327897  0.7907711229317912  0.3664594604806811
  0.3624220094675319  0.9027566231302117  0.3340005234499944
  0.7198286677626530  0.9908399356428415  0.3736513978186498
  0.5507704120762579  0.0272706045168192  0.3417123193858209
  0.9003909482902567  0.3052131377392406  0.3888441934060843
  0.8189124868653979  0.4256928810993618  0.0501210333523892
  0.6710060604377582  0.4893551402619787  0.0595604182732347
  0.7266315129011891  0.1824630177225527  0.0428459344890687
  0.3116487940315926  0.1014158327116070  0.0643464452941069
  0.1391353774111023  0.2433584594350841  0.0466103533518287
  0.2233460131427242  0.4851888499900866  0.0467552455382081
  0.2515618151924752  0.8203577854335021  0.0981964010843758
  0.4793050471554844  0.2754879026797700  0.0519888325494333
  0.4559192690528318  0.8187114415594668  0.0039600091144675
  0.1625493889504248  0.6719261412035156  0.0365988211881901
  0.4115476332106047  0.9738515064594305  0.0642176450493877
  0.0141013601245804  0.7219753139096359  0.0760379734911466
  0.8753897528386345  0.7932567837480080  0.0687155895209094
  0.7023780275555384  0.9293655739207031  0.0740164840943031
  0.5223435996948819  0.7375802571507364  0.0876679255219587
  0.2180220835536531  0.9593993372602923  0.0522157817514550
  0.9284698990298368  0.6182992074529330  0.0391521398262463
  0.9334212803690799  0.4534313556275092  0.0348222684369250
  0.5948279377287039  0.9627306147682180  0.0935851550716489
  0.7981663674272089  0.9707838515360226  0.0643218681589321
  0.7801996484339873  0.1024242943243906  0.0083774947795732
  0.2144125724331890  0.1562285681023067  0.0686287117129593
  0.9824154459952460  0.0375875672554510  0.0553670821123255
  0.9970529831763003  0.2828770793164087  0.0481622048257367
  0.9317090717883182  0.3992728227693013  0.0941494553314983
  0.1136647092264901  0.9351593641247707  0.0372214405269209
  0.6358119948701694  0.1407398347033450  0.0615265458145287
  0.6140797498810433  0.3328052679614813  0.4975506646280035
  0.4771607187381533  0.3352518816198555  0.5016090860366405
  0.5519117927771936  0.4455305859558562  0.4873233207942340
  0.6846407245256113  0.4469665559437801  0.4873408712070741
  0.4124146181412575  0.4553629041182346  0.4951772128217828
  0.3397199910876214  0.3336466881073522  0.5024491104538528
  0.7541885702290893  0.3268605135489515  0.4908534053259755
  0.4464293373379143  0.5873585496474792  0.4720605780872933
  0.6187700452270977  0.5645172517573068  0.4838756874687845
  0.5469034404195476  0.6888904928275075  0.4756162799802305
  0.6232347934654363  0.4177858258156541  0.5393942045420945
  0.5488175428101029  0.2686248366859066  0.5344243937223915
  0.5426445337809402  0.3526876741333642  0.4468050312199966
  0.6869344461302692  0.3557524816331316  0.4426798101306684
  0.3991396143788097  0.3639878908338058  0.4511191171024506
  0.4807491688280202  0.4203322761657844  0.5420435832140885
  0.4710947572000019  0.4891548195479642  0.4424018833911925
  0.6218080954653680  0.4844727955482444  0.4360753563722558
  0.7844219539536774  0.4176976825583385  0.5176974052179071
  0.7147472922844855  0.5467141396936513  0.5115147013862826
  0.3162502839701828  0.4242350651977931  0.5315414210420207
  0.3849237853286985  0.5504981880748864  0.5238513508667076
  0.2611530321926708  0.2828054142585302  0.4813156955280260
  0.4030900194464489  0.2750420265820770  0.5399038164171394
  0.8292139876263002  0.2752138803212527  0.4650304973904341
  0.6963041725120981  0.2704087452450421  0.5316318349616144
  0.3814135346185092  0.6206879420229238  0.4309727248181228
  0.5449738928201256  0.5434784114309709  0.5266134345242101
  0.5450327723338305  0.6093848393954500  0.4321312229685003
  0.6379601139643478  0.6714406803665646  0.5067871564500634
  0.5464341093289180  0.7765603666697609  0.4468984832218189
  0.4642503061176950  0.6766431652080878  0.5152784942770559
 
  0.00000000E+00  0.00000000E+00  0.00000000E+00
  0.00000000E+00  0.00000000E+00  0.00000000E+00
  0.00000000E+00  0.00000000E+00  0.00000000E+00
  0.00000000E+00  0.00000000E+00  0.00000000E+00
  0.00000000E+00  0.00000000E+00  0.00000000E+00
  0.00000000E+00  0.00000000E+00  0.00000000E+00
  0.00000000E+00  0.00000000E+00  0.00000000E+00
  0.00000000E+00  0.00000000E+00  0.00000000E+00
  0.00000000E+00  0.00000000E+00  0.00000000E+00
  0.00000000E+00  0.00000000E+00  0.00000000E+00
  0.00000000E+00  0.00000000E+00  0.00000000E+00
  0.00000000E+00  0.00000000E+00  0.00000000E+00
  0.00000000E+00  0.00000000E+00  0.00000000E+00
  0.00000000E+00  0.00000000E+00  0.00000000E+00
  0.00000000E+00  0.00000000E+00  0.00000000E+00
  0.00000000E+00  0.00000000E+00  0.00000000E+00
  0.00000000E+00  0.00000000E+00  0.00000000E+00
  0.00000000E+00  0.00000000E+00  0.00000000E+00
  0.00000000E+00  0.00000000E+00  0.00000000E+00
  0.00000000E+00  0.00000000E+00  0.00000000E+00
  0.00000000E+00  0.00000000E+00  0.00000000E+00
  0.00000000E+00  0.00000000E+00  0.00000000E+00
  0.00000000E+00  0.00000000E+00  0.00000000E+00
  0.00000000E+00  0.00000000E+00  0.00000000E+00
  0.00000000E+00  0.00000000E+00  0.00000000E+00
  0.00000000E+00  0.00000000E+00  0.00000000E+00
  0.00000000E+00  0.00000000E+00  0.00000000E+00
  0.00000000E+00  0.00000000E+00  0.00000000E+00
  0.00000000E+00  0.00000000E+00  0.00000000E+00
  0.00000000E+00  0.00000000E+00  0.00000000E+00
  0.00000000E+00  0.00000000E+00  0.00000000E+00
  0.00000000E+00  0.00000000E+00  0.00000000E+00
  0.00000000E+00  0.00000000E+00  0.00000000E+00
  0.00000000E+00  0.00000000E+00  0.00000000E+00
  0.00000000E+00  0.00000000E+00  0.00000000E+00
  0.00000000E+00  0.00000000E+00  0.00000000E+00
  0.00000000E+00  0.00000000E+00  0.00000000E+00
  0.00000000E+00  0.00000000E+00  0.00000000E+00
  0.00000000E+00  0.00000000E+00  0.00000000E+00
  0.00000000E+00  0.00000000E+00  0.00000000E+00
  0.00000000E+00  0.00000000E+00  0.00000000E+00
  0.00000000E+00  0.00000000E+00  0.00000000E+00
  0.00000000E+00  0.00000000E+00  0.00000000E+00
  0.00000000E+00  0.00000000E+00  0.00000000E+00
  0.00000000E+00  0.00000000E+00  0.00000000E+00
  0.00000000E+00  0.00000000E+00  0.00000000E+00
  0.00000000E+00  0.00000000E+00  0.00000000E+00
  0.00000000E+00  0.00000000E+00  0.00000000E+00
  0.00000000E+00  0.00000000E+00  0.00000000E+00
  0.00000000E+00  0.00000000E+00  0.00000000E+00
  0.00000000E+00  0.00000000E+00  0.00000000E+00
  0.00000000E+00  0.00000000E+00  0.00000000E+00
  0.00000000E+00  0.00000000E+00  0.00000000E+00
  0.00000000E+00  0.00000000E+00  0.00000000E+00
  0.00000000E+00  0.00000000E+00  0.00000000E+00
  0.00000000E+00  0.00000000E+00  0.00000000E+00
  0.00000000E+00  0.00000000E+00  0.00000000E+00
  0.00000000E+00  0.00000000E+00  0.00000000E+00
  0.00000000E+00  0.00000000E+00  0.00000000E+00
  0.00000000E+00  0.00000000E+00  0.00000000E+00
  0.00000000E+00  0.00000000E+00  0.00000000E+00
  0.00000000E+00  0.00000000E+00  0.00000000E+00
  0.00000000E+00  0.00000000E+00  0.00000000E+00
  0.00000000E+00  0.00000000E+00  0.00000000E+00
  0.00000000E+00  0.00000000E+00  0.00000000E+00