 SiO2-Mo5S12                            
   1.00000000000000     
    21.3948993682999991    0.0000000000000000    0.0000000000000000
     0.0000000000000000   21.3948993682999991    0.0000000000000000
     0.0000000000000000    0.0000000000000000   34.1699981689000012
   O    Si   H    Mo   S 
   236   102    64     5    12
Selective
Direct
0.2823591204949626 0.7118322896049948 0.0998882001146683  F  F  F
0.6118138075167177 0.6250339968363465 0.2004202374660028  F  F  F
0.1489174395651161 0.3906908647426592 0.0913131055812519  F  F  F
0.3793914114603272 0.4419112323581208 0.1369964027438911  F  F  F
0.6763735410300699 0.8495025755635053 0.1344473766120718  F  F  F
0.1004671484837390 0.4623154306224481 0.3517426355450244  F  F  F
0.0045143171249794 0.7584430895466999 0.2996146755536432  F  F  F
0.6572318429811567 0.1428255903288483 0.1957670703175697  F  F  F
0.2142616780381283 0.9160952612482151 0.2053129583373629  F  F  F
0.8445503371229185 0.5335719383697891 0.1015625135983035  F  F  F
0.4116881478085580 0.7692860391850610 0.2076940307095496  F  F  F
0.5174239569654733 0.5529872247924484 0.2237688673273078  F  F  F
0.1152262619765317 0.5125937115273581 0.2134239484432260  F  F  F
0.6094900556721127 0.4958747455720544 0.3333188621289347  F  F  F
0.4337098585784713 0.6473574850042950 0.2184290020902079  F  F  F
0.1197640290809896 0.4162666116033779 0.2785547746838724  F  F  F
0.5185755171868132 0.7340041517204891 0.2367157791344184  F  F  F
0.3175720069805833 0.9833943448514391 0.1991210139275724  F  F  F
0.3237348469516574 0.8581053341996376 0.1912608624013677  F  F  F
0.8144882772977492 0.8740398023126577 0.2732763426407188  F  F  F
0.9758445128864818 0.2481360931782024 0.3096207413951899  F  F  F
0.9866122583762227 0.0414945315206100 0.2918613174108091  F  F  F
0.0028977266160827 0.0201371967962616 0.1746439285161816  F  F  F
0.0984671902178484 0.2957608469629011 0.1261295628215128  F  F  F
0.5914433011843998 0.7304661721273479 0.2994481297464925  F  F  F
0.4244077650192795 0.5801129333825491 0.3382863490114413  F  F  F
0.8011059025739677 0.3275580203503604 0.1646061008830441  F  F  F
0.0639422514669991 0.2041433570632883 0.2622344513501649  F  F  F
0.5209295453824599 0.6903774903781800 0.0869169714318285  F  F  F
0.1534270211986397 0.6140712645208000 0.2492989413041385  F  F  F
0.5514426435443807 0.1770459297544988 0.2318601303154539  F  F  F
0.7182026929763035 0.4132296479842433 0.1916020257687263  F  F  F
0.5098618250264587 0.9505882007783154 0.1227643840287227  F  F  F
0.2530436119918533 0.8635048430120362 0.1081660717864491  F  F  F
0.6268893204365792 0.7487777549896377 0.1737509854760177  F  F  F
0.7415280538633959 0.9059679760423814 0.0781761966855150  F  F  F
0.6939091641237586 0.8504900772375351 0.2790905155904402  F  F  F
0.7213196239560065 0.6822575465545108 0.1991189727647574  F  F  F
0.2231086138423765 0.2857418390001515 0.1799376425796116  F  F  F
0.1133768296732742 0.0612184567337743 0.1013460765441238  F  F  F
0.5643727902991600 0.1826895382454446 0.3205971823293564  F  F  F
0.7811220466234449 0.6685620625378715 0.3460614947664578  F  F  F
0.2034901905669269 0.2820695790256634 0.2557274920634503  F  F  F
0.6152440401679335 0.5370487413622943 0.1289877295134736  F  F  F
0.3296949201733650 0.4597928322618866 0.2069651983284030  F  F  F
0.3161994153829880 0.3355615626447436 0.1383683288410121  F  F  F
0.3026180249275904 0.9720291461924543 0.1222852146883647  F  F  F
0.4989554850075036 0.5870438614476294 0.1261178926862614  F  F  F
0.8695703666337963 0.4626942434644098 0.3004715867989396  F  F  F
0.5922864143951732 0.0634193602892972 0.2931599134725710  F  F  F
0.4606516130646817 0.1378686651435748 0.1847154641808315  F  F  F
0.4791979204875516 0.7915240844604240 0.3027252451093693  F  F  F
0.5120842491054525 0.4122024168742583 0.3124423855353274  F  F  F
0.0999012184983711 0.8419866088072158 0.3040220242538721  F  F  F
0.3104259729672326 0.4166222128333159 0.2766629288304694  F  F  F
0.7809902026584935 0.1296674934457055 0.3400004969510185  F  F  F
0.4913217981126007 0.7025362140008934 0.1617023087250095  F  F  F
0.9877415928407616 0.8954031777562295 0.1666872226171068  F  F  F
0.8867555622418937 0.7304703043433569 0.3289640249437479  F  F  F
0.6111405801135125 0.5758487494646135 0.2710895425176869  F  F  F
0.7922413868434115 0.8219483599314314 0.1253069005097380  F  F  F
0.8860252422126452 0.3372812316244899 0.3106955280208609  F  F  F
0.8206589257295495 0.4595710957996935 0.1627183642222193  F  F  F
0.6363725094498616 0.2627415019362513 0.2259039139549843  F  F  F
0.8964070855798902 0.8150778036372146 0.1619467472949608  F  F  F
0.8741807779373360 0.0939483840185997 0.2949328429927990  F  F  F
0.4437826756479331 0.9117803039563400 0.3158955211438093  F  F  F
0.1062207283002788 0.0583594011028145 0.3072950438455202  F  F  F
0.0319605057143223 0.4252159319468775 0.2214208686905403  F  F  F
0.5720595711243288 0.8382277821325477 0.2637993124312915  F  F  F
0.0034525069105107 0.1301705133462035 0.2127445146438634  F  F  F
0.2174527508270594 0.2869432745097787 0.1028471985703379  F  F  F
0.4383815078873177 0.8692873360712554 0.1640922690639076  F  F  F
0.4120138927338054 0.0071957646581603 0.1521085908286628  F  F  F
0.1246957826318392 0.1269628836281108 0.2146968333010038  F  F  F
0.1000338524512567 0.9381322996159752 0.1772352323288043  F  F  F
0.3022008403859444 0.9033059427879099 0.2600491037157810  F  F  F
0.3607258159493662 0.7787974790895767 0.1392331596520035  F  F  F
0.5898526070371449 0.0425478569608917 0.2160434345639037  F  F  F
0.3172186016914325 0.0864231889044324 0.1507522162854421  F  F  F
0.4074469717614825 0.3518678917815173 0.2472303715895317  F  F  F
0.5157054701231742 0.2082208949555453 0.1313333494549212  F  F  F
0.6959881231421702 0.3272880022350127 0.0615128693935226  F  F  F
0.8401367925331541 0.7069013772495374 0.1484066473254500  F  F  F
0.8370634038168729 0.6713783523857134 0.2239397820238077  F  F  F
0.6206149193883739 0.2565750943138307 0.1056524752318856  F  F  F
0.3802797756534332 0.7680290624135199 0.0654596149735284  F  F  F
0.4210178452649395 0.0353452723385529 0.3039960520182980  F  F  F
0.3120469059225541 0.5492746006315102 0.3123735999196291  F  F  F
0.2452347659996363 0.1227829265779329 0.2130260521429254  F  F  F
0.7402526668732182 0.5499090249215085 0.1435684708886143  F  F  F
0.6296151387737351 0.0583083588763144 0.1428714503804090  F  F  F
0.8132196073764543 0.9619291571291237 0.2176682379645413  F  F  F
0.1744223910363720 0.3664400448751924 0.3415399752524152  F  F  F
0.2432366356141444 0.6949447665737787 0.3140540516379414  F  F  F
0.0454116411984457 0.7226556739780340 0.1516117468431757  F  F  F
0.6667220059401153 0.6496156414910808 0.1333577945041478  F  F  F
0.7073170905452015 0.0234963344882734 0.2002142620944749  F  F  F
0.6470792502921251 0.8627276053015511 0.2066551184827539  F  F  F
0.4114684531359650 0.3509201312468345 0.0867597546558581  F  F  F
0.5195556523747126 0.2607924630488980 0.0596735993582262  F  F  F
0.9117167474597661 0.8830629912893218 0.2264951878695779  F  F  F
0.5289884656459148 0.3359529680591947 0.1208222783652384  F  F  F
0.4038276336710105 0.1584668160698429 0.1168909364330254  F  F  F
0.7701536420327144 0.7689249359851106 0.2452242392943618  F  F  F
0.6338536933426625 0.9802433161599999 0.0830591891871870  F  F  F
0.2085852836704166 0.4785739516538794 0.3168065756374348  F  F  F
0.0527256687594495 0.6792474917686880 0.2228391246513609  F  F  F
0.8856806376016092 0.9708016795985339 0.2804687052740250  F  F  F
0.1831627883946746 0.0297294956477357 0.1795829588598781  F  F  F
0.3361621260336971 0.0874879464593381 0.2606866262950769  F  F  F
0.0439228511759980 0.6145623290692007 0.2888453377728977  F  F  F
0.9182131361910589 0.1102163133658816 0.1590894508144512  F  F  F
0.4455540226237019 0.1431299440103583 0.2616606524598466  F  F  F
0.1807445292559934 0.1383975432093068 0.1451153793352360  F  F  F
0.1313242854323530 0.9879417548497567 0.2443754984212433  F  F  F
0.3206335659786259 0.8840461250240682 0.3359741197905047  F  F  F
0.2957256188471185 0.1371510604445941 0.0797097987165340  F  F  F
0.8644724159610920 0.2712973319141884 0.1078597235224123  F  F  F
0.8876149880956505 0.7666387121292536 0.0886280353340109  F  F  F
0.1161494303827903 0.7175994110235629 0.2854934724650846  F  F  F
0.4751381114915428 0.8388746900526849 0.0927393434710991  F  F  F
0.4331616092667858 0.0136129973031831 0.0734104727484823  F  F  F
0.2192805018175524 0.8399791857850918 0.3047820221453027  F  F  F
0.8080368184671743 0.0606668493570561 0.1677861920870082  F  F  F
0.9443659134086171 0.6714981025904967 0.1851161077569446  F  F  F
0.3172248088573277 0.2901063202446085 0.2855148921590033  F  F  F
0.9163417664217125 0.0503496937005097 0.2272637602267723  F  F  F
0.7998530575360611 0.5633460713913558 0.3054656766480981  F  F  F
0.3587342281120052 0.6615749502309353 0.2926459127495291  F  F  F
0.4969664080263660 0.2892168582460006 0.3312919792686294  F  F  F
0.6605999411637590 0.1190187332928068 0.3459793374077769  F  F  F
0.9211231667556775 0.5794568190413901 0.2916447367537465  F  F  F
0.9705115727867039 0.5509594243752498 0.0982036424434370  F  F  F
0.5115879854492779 0.9831653848000365 0.2654464049803827  F  F  F
0.4021490766573662 0.6680882104667186 0.1119287587914662  F  F  F
0.3801337174629491 0.1421297929577225 0.3280405925051450  F  F  F
0.4761428967231165 0.3673637421615299 0.1849581858429684  F  F  F
0.0214181419231735 0.5076653547669167 0.1622467400004130  F  F  F
0.0815669037075756 0.4950796891665228 0.0943128916616180  F  F  F
0.2029172099348939 0.5820401987543476 0.1806838097286440  F  F  F
0.9806626730853952 0.2551093672414074 0.1326490238025346  F  F  F
0.1950009053918502 0.4887418362002642 0.1284170866990488  F  F  F
0.3664179346950940 0.8943572672484018 0.0761695963848019  F  F  F
0.3061015480119167 0.5387654574032664 0.1481921206441632  F  F  F
0.7411560683198969 0.4035847390219923 0.1153765771759330  F  F  F
0.1564365620695123 0.6984538834313677 0.1170675725440672  F  F  F
0.5645524068541410 0.6153138441144932 0.3368456134570889  F  F  F
0.6125501188803946 0.2940625157617382 0.3004881833267161  F  F  F
0.4525496288049525 0.2488377882299651 0.2163536304230409  F  F  F
0.2619261917246445 0.1781372166159867 0.2803366016863392  F  F  F
0.6870834071017083 0.5914693436680172 0.3309426164484374  F  F  F
0.5310280693054542 0.3287564285091462 0.2485319114008249  F  F  F
0.3960247121592686 0.3629177093902385 0.3231964581545882  F  F  F
0.2986696237995238 0.2118095887644459 0.1403800423824167  F  F  F
0.5996356702074954 0.3910555447115118 0.1753037493414028  F  F  F
0.5371244603940825 0.5145755305361089 0.0682896969481264  F  F  F
0.2334273999424972 0.3906610734657531 0.2202406507677063  F  F  F
0.6398284265391627 0.3841566252836370 0.2476050344287846  F  F  F
0.0406918828761953 0.9619357629218704 0.1107289232826991  F  F  F
0.8536677585859125 0.5851446077022371 0.1701784804627975  F  F  F
0.6915668632898397 0.5709219192157133 0.0728313081666752  F  F  F
0.6289529529150804 0.4980211529174957 0.2127615627649158  F  F  F
0.0708285573149617 0.1749216216227961 0.1153055680247860  F  F  F
0.9109392172265591 0.2671196462251280 0.3752428490097389  F  F  F
0.8353630219080141 0.1152014647749458 0.1013827044753859  F  F  F
0.4999490611719569 0.0797930918099452 0.1220134025990137  F  F  F
0.6293564829041864 0.9502240781069130 0.2626809650831246  F  F  F
0.2287249377264099 0.6011934139407269 0.1045061677079594  F  F  F
0.0659094694949989 0.2276660972399598 0.1863014525859648  F  F  F
0.7623371166353879 0.9414588608722932 0.1508766371600177  F  F  F
0.8217885695115350 0.1928656544882533 0.1618764113932458  F  F  F
0.2198410414511536 0.2557570386052226 0.3309558397903390  F  F  F
0.0253010251755527 0.1110003292997915 0.3535381955588954  F  F  F
0.7246410207677110 0.0616746705088102 0.0937432605791818  F  F  F
0.3058672507494518 0.4104709121368800 0.0754940766465225  F  F  F
0.7748349479830650 0.7876854355169823 0.3228374063440672  F  F  F
0.0722623504825466 0.6070730575407808 0.1271333447477155  F  F  F
0.8578217885180658 0.2155061528861456 0.3146481904956976  F  F  F
0.1236225868357703 0.3447629753979291 0.2132738999342118  F  F  F
0.0352950623094410 0.3265107294217341 0.2661145172117486  F  F  F
0.6575728210334655 0.1627114552192108 0.2712167700234286  F  F  F
0.2314589160994979 0.5104341811194221 0.2417718147533542  F  F  F
0.7398388140621488 0.6566944771308464 0.2731466565318738  F  F  F
0.7419595308244034 0.2503804139542706 0.1165012017805977  F  F  F
0.0072236043058823 0.4977525247027172 0.3072781858818467  F  F  F
0.2149323545223292 0.5886845410299735 0.3549627232536356  F  F  F
0.3222711335198474 0.7835918553880121 0.2859722084299038  F  F  F
0.0959073142789520 0.2707949973833000 0.3243611663218322  F  F  F
0.4063603823799940 0.5546058927824976 0.2626108900302966  F  F  F
0.7374452339756791 0.0176975714538344 0.3543255372060216  F  F  F
0.4152930763557102 0.5363753350419846 0.1845358576926281  F  F  F
0.0511290069572464 0.6990102889399344 0.0753646021674056  F  F  F
0.9967161695959810 0.5414595973221996 0.2342194452700895  F  F  F
0.5182136417023814 0.4610663693108987 0.1381095838527155  F  F  F
0.9883460759164386 0.7858474809026119 0.2076411211082618  F  F  F
0.1706930498303131 0.9527029354008305 0.3124829562517563  F  F  F
0.5580378700830793 0.8449290096436287 0.1511844269114830  F  F  F
0.2199337725972602 0.0574406749443055 0.2788403754656971  F  F  F
0.3416661340539372 0.7294119357674789 0.3563640703501431  F  F  F
0.2796850155427028 0.4904721609911014 0.3796492826193454  F  F  F
0.4746248321757281 0.3792385323535252 0.3830079078653603  F  F  F
0.1504651922533930 0.2804598467527967 0.3944871745206695  F  F  F
0.5975846281488097 0.2644352300805866 0.3758302869399057  F  F  F
0.7269983066932632 0.1039605204180999 0.4105592336099887  F  F  F
0.8999143094762584 0.1332270558385829 0.3671802416997083  F  F  F
0.8244848557435704 0.7599435350601533 0.3927266987784521  F  F  F
0.8801641571299260 0.5399706767328256 0.3622280181034453  F  F  F
0.8629997422903387 0.4092099394466345 0.3708039220194952  F  F  F
0.7719259710179028 0.3931224749151741 0.3143199797982866  F  F  F
0.0078408534272384 0.5369122360395923 0.3793771276823591  F  F  F
0.9909023300265459 0.4123966112164872 0.3654955524206649  F  F  F
0.5449383073478246 0.8647646147800992 0.3520649759811236  F  F  F
0.0938461971299979 0.7581900306260603 0.3585491920241358  F  F  F
0.1544672656484644 0.8775004847598701 0.3709342027641442  F  F  F
0.0335301934794584 0.9823028903801472 0.3514480250164608  F  F  F
0.4312640261260440 0.8229438144404566 0.3718256802218144  F  F  F
0.5207980518548168 0.9922432865391344 0.3448431785468413  F  F  F
0.6588240638354407 0.4442730648366160 0.0606568465227095  F  F  F
0.7759657423553077 0.4202452302391008 0.0407397740729460  F  F  F
0.6874746026420296 0.2030917087864657 0.0519249241774397  F  F  F
0.1270276592738074 0.2875264261778370 0.0495263361602483  F  F  F
0.1795678744279553 0.4919026671978102 0.0493004909097441  F  F  F
0.4344550193999765 0.8526039400492412 0.0186117950017903  F  F  F
0.2041964235153755 0.6815076382322283 0.0451084571214389  F  F  F
0.2654276022346584 0.9499850568258593 0.0494468969204416  F  F  F
0.8990856794346449 0.5791034420596545 0.0370342180532276  F  F  F
0.9084895798773960 0.4592475359794530 0.0583161387892479  F  F  F
0.8218501458346756 0.0089331898048471 0.0576611244780782  F  F  F
0.7816338983213937 0.1221854857363839 0.0338904094646981  F  F  F
0.1692695624247656 0.1623378457403802 0.0687274929702211  F  F  F
0.0274348903324864 0.0289910476017035 0.0453596690036648  F  F  F
0.1326576088779778 0.9664984896695210 0.0552074333353671  F  F  F
0.9531388386093215 0.2793089658469650 0.0561672111608212  F  F  F
0.9456349361098086 0.3682191529751666 0.1134225006123696  F  F  F
0.6126550701015300 0.1025418635184798 0.0692679169497008  F  F  F
0.3535422216373474 0.3845303573624853 0.1099544242506828  F  F  F
0.2173585614905966 0.6733740353958579 0.0918797500093484  F  F  F
0.3166521560106423 0.7182504177320070 0.3108389808616565  F  F  F
0.3565057770778663 0.7284850299150391 0.1041417682504863  F  F  F
0.2930138919755960 0.8536950285672952 0.2961568910517176  F  F  F
0.4435268183060456 0.5724501538853878 0.2224684275041046  F  F  F
0.3962437271883011 0.1027494524903178 0.2883315659995980  F  F  F
0.6266199344414141 0.1866343076637424 0.2298784077629717  F  F  F
0.9165902320790315 0.0398168519683441 0.2745503621268596  F  F  F
0.0766148756098699 0.7702561864880115 0.3118167668470982  F  F  F
0.8157761814392994 0.7368188958044301 0.3476333006634802  F  F  F
0.8147044866184300 0.5316272761282560 0.1457770344464421  F  F  F
0.4133151762068976 0.8372498338085101 0.0634044256735958  F  F  F
0.5312529219499846 0.3907834913118750 0.1546726986334206  F  F  F
0.4692876047883707 0.3604725750188909 0.3366030972110516  F  F  F
0.6543759357118286 0.6775490570389464 0.1773561860990155  F  F  F
0.4642074957684445 0.7138299264554904 0.2061916344892773  F  F  F
0.7718311577992418 0.3990233127551790 0.1586899120274560  F  F  F
0.8531246704893440 0.7775573073428435 0.1313495478194337  F  F  F
0.8563572156062483 0.9226337800667902 0.2484499637006753  F  F  F
0.8686684702867078 0.5361220187398068 0.3145742312769744  F  F  F
0.6186808307858654 0.1319418816952012 0.3075377537237626  F  F  F
0.7739018259086863 0.9968889220168190 0.1835348326820627  F  F  F
0.5929213409862892 0.5628614607914207 0.2259285861899203  F  F  F
0.6182622744958263 0.5667553912993490 0.3177960827097773  F  F  F
0.9609389734764013 0.0769108525836140 0.1927472550855817  F  F  F
0.3288643264151758 0.1480034195257871 0.1230809000889584  F  F  F
0.2896295447848619 0.9156950131964157 0.2137577932096128  F  F  F
0.7437412844194289 0.8807299131288190 0.1237847557438107  F  F  F
0.7668558908918263 0.6947078548531520 0.2358744279621022  F  F  F
0.9468495137807009 0.8453561325211387 0.1916126811781920  F  F  F
0.7267848729363480 0.0919718028925153 0.3631913993867918  F  F  F
0.1605617293354449 0.8792625894891758 0.3231413370010568  F  F  F
0.0771221600030081 0.0054096571348542 0.0786361827789187  F  F  F
0.4660706855553024 0.3229006818475312 0.2232747667843225  F  F  F
0.0436016337151981 0.2617862933359860 0.2904735591599661  F  F  F
0.4767507951403496 0.1767908697349159 0.2240298955947684  F  F  F
0.1966043439490699 0.3252721470442914 0.2166581407001556  F  F  F
0.0915046472741876 0.6560254244805332 0.2611016149830926  F  F  F
0.1337249573790675 0.1338045768584213 0.1071802981903993  F  F  F
0.0414897243643568 0.4969937910696041 0.2073291560930343  F  F  F
0.3837355029502441 0.8192772402371924 0.1763733535820102  F  F  F
0.4732907664059102 0.9809804832064912 0.3071754292648621  F  F  F
0.6355457641131619 0.8754297471127690 0.2533179431796512  F  F  F
0.2642560013846436 0.2797896318659470 0.1400446086078119  F  F  F
0.6490964472248446 0.0530296618348235 0.0967454125376737  F  F  F
0.5820840148945355 0.0096575944234382 0.2587239662828255  F  F  F
0.1522013179440647 0.4659921351603361 0.0909147091180927  F  F  F
0.5419795118334768 0.5253691743633497 0.1154084287205427  F  F  F
0.4637540167177087 0.0127676904547525 0.1172766411782346  F  F  F
0.8080391727910683 0.2608194392965262 0.1390032088758611  F  F  F
0.6880057720972472 0.2603753649185443 0.0836278107892839  F  F  F
0.5671840967790966 0.2572913945751361 0.3321234760554058  F  F  F
0.4751209094064054 0.8468136990148709 0.3362493547546498  F  F  F
0.0646486492337799 0.1727843001546388 0.2190827571479727  F  F  F
0.1576230423346612 0.0146111707559047 0.2859656125786126  F  F  F
0.8444411305781234 0.1212203493631635 0.1487467347287770  F  F  F
0.9930021237963718 0.5590201999124641 0.2804063532967339  F  F  F
0.2954492751670896 0.9186095535470065 0.0886443753526683  F  F  F
0.8532363772335974 0.1423485950963366 0.3288108468953925  F  F  F
0.2540885688665170 0.5276606385768260 0.3407751506357139  F  F  F
0.0325103404665342 0.9549253760668588 0.1580642873324775  F  F  F
0.1578355839431252 0.9671835330455839 0.2017588343340231  F  F  F
0.2642123276852565 0.1106344068601025 0.2585941252325665  F  F  F
0.0371251441535218 0.5401815809532409 0.1204888783700276  F  F  F
0.7909433094963204 0.0748270811760311 0.0719859121668350  F  F  F
0.3561493912508043 0.3558090836532319 0.2825549021757759  F  F  F
0.0815488830937028 0.6817561905378271 0.1183944551231479  F  F  F
0.1834944628794804 0.1046905087694226 0.1878590199398515  F  F  F
0.2747320179819072 0.4468693877416157 0.2379736985066583  F  F  F
0.1483043146830314 0.3153203071271967 0.0921491850388129  F  F  F
0.5399414503642899 0.7721276079639470 0.2761553927195735  F  F  F
0.2508649819981978 0.2515768340305453 0.2876804031987151  F  F  F
0.7190680466654326 0.3988433441648480 0.0696080284921547  F  F  F
0.8692586304181145 0.6582568179206417 0.1813325576333147  F  F  F
0.4956327739410766 0.8762497136624576 0.1330449223629109  F  F  F
0.3755296268423433 0.5874009583711153 0.3017317519066869  F  F  F
0.6472943402982767 0.4242887688241677 0.2065484107693169  F  F  F
0.8464207674285856 0.3992881133824916 0.3233979521205712  F  F  F
0.7632011467419506 0.8200888358216708 0.2803698514436404  F  F  F
0.6270744403499703 0.8248850574052956 0.1672046486108713  F  F  F
0.6064144600417497 0.3166977558557271 0.2549206196352989  F  F  F
0.4714773329614213 0.1466493336864180 0.1377512993062066  F  F  F
0.5456210061562506 0.2645296406030540 0.1043727065806740  F  F  F
0.4781177104315490 0.6606792492723669 0.1219142799771723  F  F  F
0.0262413652541012 0.4757942534062712 0.3513853551012446  F  F  F
0.9086285027698987 0.2690862848352505 0.3268594570003061  F  F  F
0.0374168603274813 0.0485551282267439 0.3273199121071339  F  F  F
0.3364122050972708 0.0126603836511029 0.1564144314758856  F  F  F
0.3577151380483318 0.4940649661580906 0.1688238971517900  F  F  F
0.1585304091584180 0.2926047722801358 0.3476651999601271  F  F  F
0.1504461711702203 0.4309099280388463 0.3214633670928313  F  F  F
0.6787460146920099 0.5769513298052482 0.1202887164151781  F  F  F
0.2327077127677558 0.5523592132799755 0.1406036277903729  F  F  F
0.1766820393970198 0.5546382407544277 0.2222133472829748  F  F  F
0.0064270433941030 0.7152711117869694 0.1926345074359615  F  F  F
0.7517203914978505 0.6203691918176464 0.3141500431843188  F  F  F
0.9367777712198186 0.2945882255466669 0.1021745661027549  F  F  F
0.6475246576058906 0.0668787033458703 0.1882643943207941  F  F  F
0.0784298620945822 0.3788148079109123 0.2452964548034463  F  F  F
0.9071207080847160 0.5325811883915083 0.0747023602543127  F  F  F
0.0536565004094939 0.2387675589552032 0.1399322954182363  F  F  F
0.7326130121270096 0.5826622131943026 0.0631045772741994  F  F  F
0.5653733999327781 0.4825227897531451 0.0581149163565394  F  F  F
0.3245163223380857 0.4074070646369364 0.0496443571360106  F  F  F
0.4531522441696924 0.3517491282087803 0.0987529472165484  F  F  F
0.4673278113025118 0.5950159825284013 0.3353109107441733  F  F  F
0.5709393177149288 0.6239903430464039 0.3646299067532871  F  F  F
0.5733369776284888 0.4696650036795746 0.3263617060974483  F  F  F
0.2091699030619574 0.7152734102984043 0.2998509658545233  F  F  F
0.3090132756120429 0.7369861128928981 0.3755308530970148  F  F  F
0.2223291218091559 0.6275746221900831 0.3399453844134650  F  F  F
0.2807035334677887 0.4452661315786042 0.3777300519757738  F  F  F
0.5196256670184503 0.4004855353944793 0.2851597826275628  F  F  F
0.4556472558874270 0.4190713383693033 0.3899938607841178  F  F  F
0.1336372260523110 0.2402794911892217 0.4023276588292476  F  F  F
0.5782869306419294 0.6913670884891315 0.3120894213045829  F  F  F
0.5751212478948036 0.2904100838949716 0.3943922892150296  F  F  F
0.3748514371285722 0.1869644637802617 0.3254572837183430  F  F  F
0.7031582605069568 0.1394412862346393 0.4200066360063071  F  F  F
0.9021129701533902 0.1708259795383791 0.3835398434788688  F  F  F
0.8980816491058650 0.6901641445006966 0.3177925632381185  F  F  F
0.7875730413783061 0.7727713229183312 0.4070620553610177  F  F  F
0.9231226154517828 0.5469692747166314 0.3717828801297735  F  F  F
0.7488785502266952 0.3559087987765460 0.3216350636417916  F  F  F
0.8555656741301546 0.4523337181896807 0.3795685551493891  F  F  F
0.0240842347116539 0.5374383003898596 0.4058954665179842  F  F  F
0.9449267257089661 0.4129463226190602 0.3694631327217248  F  F  F
0.9676361863017841 0.7664130505197982 0.3157653249970375  F  F  F
0.0935107055434387 0.7154149418628117 0.3679818719553199  F  F  F
0.1362436532515941 0.8383613563304912 0.3803101751656303  F  F  F
0.9811993333032938 0.1185176831455197 0.3606357287661759  F  F  F
0.0663910212727401 0.9718620837799395 0.3699227122571277  F  F  F
0.5503783730211677 0.9097651242753915 0.3563530822494190  F  F  F
0.3990964954664610 0.7911410561783182 0.3664466817610628  F  F  F
0.3622561429108460 0.9028548232191453 0.3344599551059854  F  F  F
0.7197000553070614 0.9873213184114524 0.3721675049207235  F  F  F
0.5511818803380818 0.0255579198619835 0.3407055412957481  F  F  F
0.9364668069837915 0.2981857416648075 0.3884347049563596  F  F  F
0.8187043742552782 0.4242823611857166 0.0502734057164779  F  F  F
0.6705255277502622 0.4888346197389364 0.0592776261388206  F  F  F
0.7263012270910724 0.1824069276504100 0.0430125115294742  F  F  F
0.3114390665162917 0.1020041791933716 0.0645299212656730  F  F  F
0.1393775014047448 0.2434313269219737 0.0468337004840677  F  F  F
0.2230308011627220 0.4811234411770224 0.0445590480297687  F  F  F
0.2528841809008766 0.8212551499919046 0.0979121854770686  F  F  F
0.4768209118674517 0.2741667553625461 0.0547618052737173  F  F  F
0.4552805645580608 0.8204930349862877 0.0034628450261379  F  F  F
0.1613613165433763 0.6772574151316605 0.0361324323587578  F  F  F
0.4127774887160190 0.9751166513723368 0.0648220534231149  F  F  F
0.0138639114016980 0.7249814439519181 0.0763153763352240  F  F  F
0.8786557952415140 0.7984901243702179 0.0691956056025595  F  F  F
0.7021699381296396 0.9295085294509947 0.0737105340328993  F  F  F
0.5234776220310892 0.7357929146116161 0.0865005191019645  F  F  F
0.2206793834563715 0.9604240488475960 0.0512549412091120  F  F  F
0.9242766699011494 0.6167778598355206 0.0368746948998605  F  F  F
0.9335472003196482 0.4516434969111571 0.0350432597652414  F  F  F
0.5949439211476986 0.9627169628520967 0.0933601669148546  F  F  F
0.7979328802871277 0.9707894252557198 0.0642020754605057  F  F  F
0.7797166179383892 0.1025441907453905 0.0083420737287104  F  F  F
0.2152006199069266 0.1565206560691127 0.0688697806578122  F  F  F
0.9846529372555659 0.0371227478510772 0.0533063019265479  F  F  F
0.9966794922925528 0.2824916705511307 0.0482216844025177  F  F  F
0.9317666514154197 0.3992043201460387 0.0941468226569425  F  F  F
0.1177866964906446 0.9367150487081407 0.0358948745817453  F  F  F
0.6355216018336765 0.1408683905597388 0.0615236248003553  F  F  F
0.5666541670369711 0.4390985551426125 0.4664182852574739  T  T  T
0.4366624330534844 0.4261686909288143 0.4842538455986601  T  T  T
0.5013290131723792 0.5246929874837606 0.5095576366352835  T  T  T
0.6536807777711306 0.5660571755822680 0.4643807740896502  T  T  T
0.3516439539475506 0.5548342549250187 0.4822767139766052  T  T  T
0.5971523603503356 0.4707740061364057 0.5257142115462119  T  T  T
0.5125005856828562 0.3477438015169071 0.4785387408334937  T  T  T
0.4851301254717826 0.5023469715254458 0.4441909459933910  T  T  T
0.6473269836194149 0.4702595193435137 0.4274770836751052  T  T  T
0.3375610723550652 0.4478442223618858 0.4647030677083632  T  T  T
0.4414469716257791 0.4544406950521763 0.5475356769307179  T  T  T
0.4315258022121743 0.6090263354178507 0.5136013815044613  T  T  T
0.5709203323224632 0.6144251547972560 0.4943507003154219  T  T  T
0.7307347147557980 0.5580123855459534 0.5036597104251521  T  T  T
0.6779783553504102 0.6328747709888380 0.4207755647418016  T  T  T
0.2718939006740868 0.5711168100751930 0.5179079497504898  T  T  T
0.3394582692385223 0.6042642978610812 0.4291588157187041  T  T  T
