 SiO2-Mo9S20                            
   1.00000000000000     
    21.3948993682999991    0.0000000000000000    0.0000000000000000
     0.0000000000000000   21.3948993682999991    0.0000000000000000
     0.0000000000000000    0.0000000000000000   34.1699981689000012
   O    Si   H    Mo   S 
   236   102    64     9    20
Direct
  0.2820293374181955  0.7092685064459903  0.1018220231467944
  0.6115171713312414  0.6232737733130822  0.2019759351329629
  0.1515100868513652  0.3896132803709745  0.0912796648408904
  0.3791196767814238  0.4378266435754803  0.1419947010275197
  0.6750701459300334  0.8481879185030259  0.1343818749304591
  0.1031452701947789  0.4698748573347684  0.3511869232037948
  0.0012690319263468  0.7622512763870907  0.2980352910270546
  0.6578828832930446  0.1424589007251799  0.1962243421509499
  0.2133352113481124  0.9144875199134840  0.2050019295205025
  0.8454316398160455  0.5322393600047428  0.1029531360983522
  0.4125994184095688  0.7682098974533703  0.2092424162735653
  0.5177834634823119  0.5510142702238681  0.2263989955123056
  0.1141224335066785  0.5120395369414434  0.2131472396884463
  0.6095636024036558  0.4963119644616058  0.3353575114142846
  0.4350932811182300  0.6464627775368958  0.2206371946071495
  0.1262636472772578  0.4167033802512261  0.2802207401465595
  0.5204617404802451  0.7331960782459517  0.2368239512502029
  0.3169326460082865  0.9812042265746508  0.1984575096775075
  0.3229766879065397  0.8552284714886703  0.1924606173883684
  0.8146385867921975  0.8739108489775795  0.2735987146748454
  0.9764726725142743  0.2479311209050758  0.3098415780372634
  0.9865420785289187  0.0416658465496051  0.2919006991808498
  0.0026147853212056  0.0195694535275131  0.1746790970430349
  0.0978966312154585  0.2959567153602539  0.1260446342883673
  0.5907809887017476  0.7297640689224848  0.3007254783520547
  0.4241681077431085  0.5862935975558657  0.3385338823282918
  0.8005046922945268  0.3263261702951095  0.1657205762605269
  0.0624946635914639  0.2024375056981521  0.2620447843933668
  0.5208314622970623  0.6891619795215552  0.0878170398935404
  0.1510388670746920  0.6126158502612593  0.2500784887319314
  0.5519357063669150  0.1763512066721977  0.2319238011274672
  0.7186297381117164  0.4125058113249525  0.1937946612334970
  0.5104332347274653  0.9491774242739985  0.1243069189854624
  0.2538538058185204  0.8621699092448941  0.1093146060510066
  0.6268647152681415  0.7467797670133632  0.1741381278458323
  0.7411106330333045  0.9051509693691857  0.0784626220962242
  0.6942596240077016  0.8499755431066874  0.2794718189369188
  0.7206575643130849  0.6805274554734972  0.2010574144189543
  0.2208363296687361  0.2828804943289049  0.1798397086512212
  0.1124719548815716  0.0604559042674837  0.1016613328759613
  0.5635724353501778  0.1767886330198075  0.3210912699898945
  0.7797945549433593  0.6690647245258838  0.3485669152733034
  0.2031074102095869  0.2826421666731848  0.2560535532526212
  0.6154407057998280  0.5354177338634309  0.1301007583793767
  0.3287841418228589  0.4664966098043608  0.2111607067495631
  0.3149973626108962  0.3324081439207460  0.1394041646349263
  0.3034042610398562  0.9708342269639885  0.1215040826191918
  0.4991551989317381  0.5850462631580656  0.1267543621188982
  0.8675361253920866  0.4629549916025268  0.3009724614930508
  0.5951072432022178  0.0604443770890923  0.2934927310141617
  0.4598786348311801  0.1396411531015635  0.1847507872447978
  0.4790232971142069  0.7916270555075834  0.3021646046188918
  0.5081450402771981  0.3999108581027420  0.3312440927220024
  0.0993285394514440  0.8411779406068418  0.3038783830211019
  0.3078114831064118  0.4119767594904668  0.2779643706841818
  0.7816217413558491  0.1315112429230672  0.3408708574537776
  0.4907347746784336  0.6999031402141768  0.1626270376878224
  0.9872768127556826  0.8947211381940604  0.1668498998286264
  0.8855126001318872  0.7289671121943480  0.3287184300400267
  0.6119083987875783  0.5757749220745368  0.2730580243047155
  0.7913938152278468  0.8209917800415051  0.1259365623013446
  0.8875308229377560  0.3375003229613658  0.3108435221178069
  0.8204927162519986  0.4581206245597006  0.1638648473732598
  0.6367083419890526  0.2621932193766747  0.2274777988881437
  0.8956706338998224  0.8147152352935680  0.1623656751982752
  0.8739427701289382  0.0937814852462121  0.2953286163476925
  0.4434802358694963  0.9119235691001357  0.3162588739901611
  0.1062288472179146  0.0572558848599080  0.3073224354870706
  0.0328265705994393  0.4249815564079089  0.2259987235584421
  0.5727184564893300  0.8374586429766414  0.2642757700874890
  0.0030717823633002  0.1307429168697255  0.2110845334796600
  0.2166984601516176  0.2840690211936615  0.1025952650030063
  0.4372584563339464  0.8681722277464842  0.1649265248901681
  0.4122776900335682  0.0057708523488120  0.1527059835373809
  0.1246472831816932  0.1250548883761939  0.2156699394009509
  0.0996678680716816  0.9375711643849109  0.1769691286571198
  0.3008656456518006  0.9042478155314136  0.2601648151653373
  0.3616291866695792  0.7753114711352632  0.1409198612762765
  0.5895228841766700  0.0426207962623353  0.2161182730284852
  0.3175974017814736  0.0846478240219290  0.1505834551178113
  0.4086886260564918  0.3531896864092330  0.2501270409472913
  0.5157322053861776  0.2069985722513999  0.1304566283435714
  0.6962428064747728  0.3273163472990045  0.0619309499472246
  0.8380726739928083  0.7062767007854385  0.1508716899966303
  0.8358474221803690  0.6691302459924456  0.2261600514026497
  0.6206887820339445  0.2565707505762143  0.1058188657647078
  0.3794061419090240  0.7660217171197590  0.0668959334310404
  0.4208228703820298  0.0354450002254396  0.3046486135599414
  0.3121568832068043  0.5498490903128564  0.3149159187256095
  0.2454716959878123  0.1212335727746065  0.2135327540559026
  0.7402605249388891  0.5476805040653874  0.1439445252697583
  0.6296697586722591  0.0583914375036801  0.1429451595465910
  0.8129818348995138  0.9615112349110509  0.2177438122285940
  0.1609399442621017  0.3627964835036254  0.3470805873729609
  0.2413183549571053  0.6986607228618072  0.3098980220163692
  0.0422466923257446  0.7200602032095582  0.1509954015634385
  0.6670179853182603  0.6474004931957293  0.1350157611971361
  0.7066210035200692  0.0224462012532654  0.2004330019547647
  0.6475089766681895  0.8608239649731932  0.2067214736472853
  0.4112198225277700  0.3505307101539775  0.0890687132834231
  0.5198124292027265  0.2638096635908513  0.0600861186310797
  0.9115472748377738  0.8827563658518682  0.2267365447950574
  0.5291675892994243  0.3350017901411804  0.1232190631740787
  0.4035890963847044  0.1575548068862063  0.1166066753046892
  0.7703826007752544  0.7686141489094289  0.2454857463824770
  0.6333965653894226  0.9799247275058534  0.0832874885742257
  0.2172113870020501  0.4673958798813971  0.3253727305028497
  0.0529984046924398  0.6790892657275728  0.2224926853461857
  0.8856472691768081  0.9708348024323797  0.2804658749160834
  0.1830844919600136  0.0287748475904302  0.1800252184665802
  0.3349706511196805  0.0890736291562130  0.2629644178195605
  0.0405149330377603  0.6160303883580287  0.2890163865535740
  0.9168291863869235  0.1083929839510470  0.1588326188337652
  0.4459646280599841  0.1415686106170449  0.2612862100527615
  0.1797827329348007  0.1376387527128725  0.1458181971842653
  0.1301610692661483  0.9857244777574853  0.2445710819098219
  0.3191817687839864  0.8852530783061628  0.3361383370964437
  0.2957724645636943  0.1352633949785779  0.0795393375301884
  0.8648107625237270  0.2710895226332904  0.1088317697283684
  0.8860724905385707  0.7625047214883304  0.0902830485557927
  0.1134138399934012  0.7172432730634793  0.2861956223835286
  0.4746029782141163  0.8380207911976745  0.0936905795732617
  0.4343526643205529  0.0120463135188193  0.0741916273438356
  0.2191765772834563  0.8388674499774758  0.3046889306081815
  0.8066182260900696  0.0598239762361205  0.1676150582920085
  0.9427340304488178  0.6705308789372482  0.1869183074451635
  0.3180983116601500  0.2846252647666930  0.2829855807562194
  0.9163543497818857  0.0507330936705000  0.2274800681540317
  0.7974968292243665  0.5635034034292826  0.3076789647311077
  0.3559023373281118  0.6616799623622884  0.2915988362267208
  0.4897244227566258  0.2759731680589658  0.3276496156348644
  0.6622315600196161  0.1170020791283216  0.3464408692605523
  0.9184720238609116  0.5794048791349349  0.2920913737219710
  0.9713910356583295  0.5491641243048329  0.0992303036167645
  0.5115962819171127  0.9831257929484610  0.2657898989407648
  0.4021983034411349  0.6654150841578580  0.1123009501607952
  0.3834310246764722  0.1457220151140760  0.3280949014859831
  0.4770484308874011  0.3674116828044857  0.1876420755741376
  0.0195668990298156  0.5038312698868104  0.1637200199038416
  0.0817938185667464  0.4916900880065733  0.0965839555686798
  0.2070845332796751  0.5783383148806616  0.1840610915114100
  0.9809526595215862  0.2540716374988926  0.1340223303173763
  0.1954404535010453  0.4870407171285926  0.1305095081035605
  0.3661255803559707  0.8924834846226184  0.0756211887686811
  0.3080919072571850  0.5371150364212477  0.1481319378585913
  0.7393812355571669  0.4020995098345310  0.1172346875689960
  0.1551117879658575  0.6967796122942774  0.1176150585671616
  0.5618448301179489  0.6147632872958823  0.3380032596598022
  0.6106110730649997  0.2901169635565355  0.3024594162259892
  0.4535125172004382  0.2496893426924180  0.2187060192120676
  0.2542854562663073  0.1760022694959851  0.2819220319314531
  0.6855510533699098  0.5924242928687818  0.3338665637585953
  0.5318585721343831  0.3292349188425931  0.2514350326840741
  0.3899468619750522  0.3545139742260208  0.3262249392305767
  0.2969784737165269  0.2088992707381161  0.1405395697177681
  0.6001022457279384  0.3891720673207683  0.1782327040103145
  0.5373336953487727  0.5108924375273621  0.0696674829933879
  0.2375347585717535  0.3886436075113375  0.2176985866412658
  0.6417290566005845  0.3822388232932890  0.2505919477839789
  0.0395151232240554  0.9612307786814608  0.1107390010603039
  0.8526906537357187  0.5839431957145602  0.1716809254358089
  0.6905295783487986  0.5705993611598640  0.0734523099664097
  0.6292336321357247  0.4963881318699849  0.2153711811505797
  0.0709949474747965  0.1747647563151390  0.1151763465133684
  0.9108554813473728  0.2666919008252290  0.3753622029528627
  0.8344156552636990  0.1151107980268723  0.1012553485697083
  0.4998666502546884  0.0789231667285903  0.1227083846124962
  0.6294902548050940  0.9490700850242854  0.2616434654341251
  0.2273189483538942  0.5994308889941459  0.1071508017669145
  0.0689745145948126  0.2269621412510693  0.1864382061185759
  0.7613298024269965  0.9403077797595729  0.1510844415100858
  0.8211515701805661  0.1918968529568871  0.1621101730612040
  0.2225366428922467  0.2608682323410409  0.3317435045771897
  0.0260774871818269  0.1112577302215398  0.3533337337936133
  0.7243165302219677  0.0612389462052605  0.0935158427729681
  0.3063491763977563  0.4122294855072416  0.0789443657444505
  0.7749656719503173  0.7873536933245256  0.3229949423178203
  0.0728066975048529  0.6038682023991433  0.1294270524658213
  0.8585648672200743  0.2157825625643881  0.3143914140684905
  0.1248656004609847  0.3467985308201729  0.2138977832548809
  0.0422152070632165  0.3262735438245754  0.2702662369212981
  0.6578617070717907  0.1618387605882974  0.2718989895408163
  0.2262828533839119  0.5055987578105750  0.2464787039522418
  0.7383374023205194  0.6581060518857326  0.2757290567960353
  0.7420887692878853  0.2500378422115254  0.1166264785767244
  0.0053597373590587  0.4991843116154764  0.3084673623919285
  0.1968841056658984  0.5886851994198766  0.3352402495749814
  0.3237598275799309  0.7856040285032027  0.2852772226068574
  0.0978287621491302  0.2592886477326502  0.3261677365584358
  0.4059222215930267  0.5538270398413365  0.2641177742890742
  0.7406666089421864  0.0179154232879119  0.3564762744133316
  0.4167194418908053  0.5363037326917280  0.1857365256911353
  0.0502322804105869  0.6926165849143648  0.0755335310261974
  0.9956069861997685  0.5411728750523777  0.2349571634425210
  0.5191466083256646  0.4598031806350104  0.1403592118994220
  0.9880249822698627  0.7852021354229198  0.2075328991297860
  0.1698840840778773  0.9510427364008580  0.3130237191404315
  0.5568085441430815  0.8420391738878629  0.1524370953625950
  0.2195645600131958  0.0540946667644606  0.2783918315951393
  0.3388929254675068  0.7291856650950480  0.3552992336051978
  0.2702881697565517  0.5251879856785618  0.3858360924041214
  0.4543164093575119  0.3397717060579416  0.3916144233418131
  0.1513505933289563  0.2699770830640226  0.3964049071001177
  0.5893464082191794  0.2665914113707019  0.3757664471741191
  0.7289034606773029  0.1044406761115858  0.4116378749830503
  0.9009674262036543  0.1335779278837644  0.3671839012453148
  0.8255516040179015  0.7620341799135473  0.3930418939551137
  0.8794178243914380  0.5395683473457727  0.3631755627208851
  0.8714332844196288  0.4101570009723972  0.3712377435855239
  0.7734611892865582  0.3916546839359102  0.3200804329114471
  0.0070588114058325  0.5375083745335898  0.3805893719774120
  0.9974241853375709  0.4123938372696447  0.3661534011789778
  0.5440442981199414  0.8640502049580674  0.3525887077189567
  0.0874458239092048  0.7576641782853253  0.3587003491743820
  0.1545558627112990  0.8739867957399714  0.3710359368065666
  0.0327439175081836  0.9822722409783747  0.3515414882217945
  0.4301522724203986  0.8213013265043303  0.3708784470796406
  0.5208442270017832  0.9922416661368655  0.3451607183430672
  0.6588278344507821  0.4444224151996136  0.0621167732207542
  0.7763768198917331  0.4207518776716559  0.0429659332608898
  0.6874155383689231  0.2030994300819184  0.0519874236290635
  0.1254361722695523  0.2872591272422043  0.0495687583232479
  0.1795768242037812  0.4936822503546134  0.0514194651937422
  0.4353760681830816  0.8479586162976426  0.0192627523301905
  0.2059762608326640  0.6783708364757686  0.0464356610326579
  0.2638702836077361  0.9469606078106251  0.0493336211657646
  0.8991261844721755  0.5784007259725464  0.0386430390182161
  0.9086090794365205  0.4580002282091578  0.0593815784170704
  0.8216075331791947  0.0085005209985525  0.0576044594830848
  0.7814226679659256  0.1214820592809249  0.0334944821410345
  0.1698315292935552  0.1604383965950680  0.0690683735380084
  0.0262428620604865  0.0288619321773194  0.0456411395796932
  0.1310330910223926  0.9657586548024973  0.0551037649402248
  0.9544269635614764  0.2793706719238193  0.0575262917782653
  0.9458310377867425  0.3675289849543165  0.1150890064263336
  0.6124638246080230  0.1021402769029903  0.0691735561997006
  0.3532176651979711  0.3831383229986235  0.1128390686477322
  0.2170020105567522  0.6711396420516662  0.0935103473961132
  0.3154232058484371  0.7196565126205334  0.3092194474448648
  0.3562669900779963  0.7259080624556415  0.1054548855734765
  0.2926436831956429  0.8545790409062839  0.2960991702570755
  0.4441683296321404  0.5714348216522819  0.2242751833009030
  0.3968224071909846  0.1033388774945809  0.2890748872673302
  0.6271136515813319  0.1859366283208561  0.2305313194072492
  0.9164570480042186  0.0398885711324003  0.2747191192850045
  0.0731460884727740  0.7703824657345769  0.3116013720404197
  0.8153815345002420  0.7370948686509737  0.3485741635676615
  0.8147659571507857  0.5301276197009390  0.1468794900498325
  0.4131415717166722  0.8348141843026254  0.0641122955883157
  0.5320048093905928  0.3896673168114234  0.1571509121833024
  0.4599870541373690  0.3427953146739827  0.3433893446723432
  0.6542094918971821  0.6756319719596324  0.1787677371426606
  0.4649585605445979  0.7125657797790066  0.2072083339834091
  0.7711844379770570  0.3978685936655171  0.1602610647337732
  0.8517464634144793  0.7760866543749300  0.1327191300819015
  0.8562747796554691  0.9224517865612212  0.2486115599492064
  0.8666702859904978  0.5361177922746523  0.3155317633386426
  0.6202657577925200  0.1290146268096846  0.3079845408896384
  0.7731271782105120  0.9958881585620653  0.1835932588159601
  0.5932179044976409  0.5614784556859396  0.2280314308571992
  0.6172403098894140  0.5676541393409179  0.3198470305817074
  0.9604256072858173  0.0764244097029546  0.1924441227172911
  0.3287596034957254  0.1461924087552737  0.1229267164182672
  0.2886631419981761  0.9141192442688029  0.2136076296566742
  0.7426895151368299  0.8795449725561847  0.1240170591914894
  0.7660444518018142  0.6939735850621785  0.2377314952095443
  0.9464354134891131  0.8447900291209360  0.1918701019777137
  0.7288300466523681  0.0921829655008450  0.3643523172978904
  0.1600162560841933  0.8775071004560789  0.3232769838937228
  0.0759615905987965  0.0049343620571104  0.0787936426496999
  0.4671534338108687  0.3236700247536960  0.2262177878487834
  0.0455802545700846  0.2587833062928091  0.2919372155474211
  0.4771379613473290  0.1771217485117950  0.2244139045210979
  0.1972921032382731  0.3246800490440755  0.2163936494774876
  0.0898446789016334  0.6556376287128148  0.2615008709528100
  0.1335857434168367  0.1328724902909952  0.1074807595861341
  0.0403913951781738  0.4954204351705934  0.2089554397997717
  0.3836144322236266  0.8172385134983711  0.1776642820413812
  0.4732778295319626  0.9811053353748842  0.3075397182758735
  0.6361466748191594  0.8742289415659948  0.2532890030680713
  0.2627668730436439  0.2769316611340010  0.1402223116296016
  0.6488307810350785  0.0527416916642082  0.0967672933166138
  0.5824029560677789  0.0084933285171906  0.2584807998854575
  0.1532243624607027  0.4649458287966844  0.0925974748027040
  0.5422938298361716  0.5232526958490195  0.1166300618106298
  0.4644364799661617  0.0114269429654314  0.1181893838521637
  0.8078520649051804  0.2601746224753893  0.1395615379690066
  0.6880821665670419  0.2602310365543077  0.0838182194841226
  0.5629811013340675  0.2515879838016207  0.3317053523897779
  0.4747184927100328  0.8464912478470250  0.3359163606786619
  0.0649430302195171  0.1716982301559618  0.2189209327738802
  0.1568175803576298  0.0124847761973887  0.2860657038396600
  0.8432719636132098  0.1202846369625688  0.1486757137704608
  0.9906780663741674  0.5595952466522545  0.2809775809758253
  0.2953567156832194  0.9167422185885077  0.0884359488026059
  0.8538644828246125  0.1428767822547409  0.3290115594804046
  0.2486709477759154  0.5336794441913434  0.3399636968333637
  0.0319233165751691  0.9542300490558286  0.1581069337061349
  0.1572554813205552  0.9660715908093761  0.2018484021582006
  0.2624011640258621  0.1095515553296787  0.2595392420998653
  0.0371126858457231  0.5371669927421877  0.1223641688795978
  0.7905440654977488  0.0744366928497119  0.0717454616239832
  0.3544030179770258  0.3519399087426590  0.2836828959361776
  0.0804964766415134  0.6783545202783474  0.1190569723088822
  0.1833965815395504  0.1036608735286086  0.1884551151960746
  0.2733227236214211  0.4450456057474138  0.2398381269143445
  0.1482421978116161  0.3143379822138591  0.0921190309203406
  0.5404502529032539  0.7714640221417182  0.2764803858036081
  0.2497465488030327  0.2504965710956033  0.2879143921066715
  0.7188922094554074  0.3986961357237914  0.0711177332019169
  0.8677233901439270  0.6570224250417555  0.1832867112811827
  0.4950858268228546  0.8747839440449673  0.1341954657959676
  0.3743175415076150  0.5884857955629851  0.3023183831970595
  0.6478565935499366  0.4225861971102871  0.2093639863219895
  0.8488255789475767  0.3991814199956145  0.3249819272950469
  0.7635978370054709  0.8197936327073433  0.2806816219940668
  0.6266578751564206  0.8228302929627638  0.1675240736952599
  0.6067272835502910  0.3152938220892077  0.2571366963855763
  0.4711534492274516  0.1461411503139310  0.1377213495125557
  0.5457286509339875  0.2647726798357691  0.1048993208543315
  0.4780487012201744  0.6585505550079322  0.1226023819325874
  0.0282395933573282  0.4780163548364595  0.3519709071810604
  0.9094619077205716  0.2690342931414753  0.3269978969392551
  0.0373456301004019  0.0484419174264187  0.3273569570196004
  0.3365574268731849  0.0109177475230124  0.1561092026366985
  0.3582584041072744  0.4938879820549272  0.1713288764820015
  0.1571274981837880  0.2874489622030824  0.3501193267747929
  0.1520405855831295  0.4288924384866951  0.3249586038245938
  0.6787379790099091  0.5752561056339335  0.1211325745167453
  0.2339505348699604  0.5501336012288172  0.1427926761247862
  0.1755995686002955  0.5522529885824699  0.2244672606436242
  0.0052471288724000  0.7142577852845646  0.1928600021159698
  0.7501152364619176  0.6212159719107113  0.3165945455321265
  0.9373330184083573  0.2939784535034165  0.1035423353284552
  0.6474572578655341  0.0666051181234933  0.1884000252404586
  0.0823897929084740  0.3792696449613388  0.2480486332049449
  0.9077109267397285  0.5312667293539235  0.0759131461122752
  0.0543461009011756  0.2382379141023813  0.1403223679365949
  0.7312795644936474  0.5828257048670203  0.0635047051902042
  0.5666934865144441  0.4794386940417718  0.0598837838596711
  0.3250800567971612  0.4101972626922348  0.0530854684444585
  0.4528339196610507  0.3514410888304630  0.1011463590418105
  0.4676633345501028  0.5983783593360443  0.3340289831022466
  0.5655512293551909  0.6193841832497480  0.3664948153378224
  0.5693286713463568  0.4750772616144073  0.3375011133074999
  0.2084981741220480  0.7241585861017421  0.2980422343981809
  0.3067141691821083  0.7440910145281793  0.3730761312831194
  0.2118311352561076  0.6295492806073980  0.3252700620665772
  0.2519997437998084  0.4895327334407241  0.3996649470732232
  0.5234915818999195  0.3944681703180222  0.3045120916502225
  0.4138845437820265  0.3249132046920172  0.4007983543155985
  0.1359770374128054  0.2284882075308095  0.4025959528159575
  0.5767057450525480  0.6917651226249378  0.3142068122903661
  0.5611362139236568  0.2591594697508953  0.3975235921925301
  0.3907125971692307  0.1902421375587007  0.3250006691261443
  0.7123886997701971  0.1437837176893747  0.4211853189807773
  0.9028416120619920  0.1708696536363044  0.3838264847679753
  0.8962377042086032  0.6876547524838561  0.3188166298917482
  0.7890949248910128  0.7626048616454856  0.4101595929190797
  0.9227550880304302  0.5465829372044329  0.3721453380232807
  0.7526045316901440  0.3539453089155265  0.3288481454798068
  0.8640697297278025  0.4534349143804711  0.3799691853940790
  0.0214557898715310  0.5366850510470449  0.4075229401922664
  0.9512869215011693  0.4112128138535647  0.3696162557318968
  0.9639552849948725  0.7649826702061695  0.3145557422819372
  0.0879673420652318  0.7144101118964944  0.3672828703166789
  0.1339100534388515  0.8357069205293687  0.3798630425310009
  0.9820871779346432  0.1191599085330702  0.3605869690711189
  0.0646120627568602  0.9726319831973305  0.3708422405185425
  0.5499492033481359  0.9090091138276990  0.3568295993636396
  0.3990550461963883  0.7887568664473205  0.3648449970516359
  0.3612229153983509  0.9031711524456515  0.3350810709695724
  0.7287442645937412  0.9880201557549977  0.3764085281706454
  0.5529270485157683  0.0237331800163477  0.3403841990359832
  0.9317872433562840  0.2999854177373567  0.3895119233694700
  0.8191682164161199  0.4241469883031181  0.0525159723820370
  0.6706405395479458  0.4889237610086342  0.0603733856899111
  0.7261658842531546  0.1824898044948620  0.0429386476867103
  0.3122256514052502  0.1008487980633317  0.0640310215305819
  0.1378925519430686  0.2433529991549581  0.0463016680756783
  0.2234740651068265  0.4852268471522334  0.0464678340714010
  0.2509523831642727  0.8204545736036609  0.0983752596017982
  0.4768983889318030  0.2769251625008298  0.0555425875519503
  0.4522367547211206  0.8136016757078209  0.0041140198477283
  0.1644469174959438  0.6696036281749199  0.0364008378402692
  0.4139496043100483  0.9735817446862097  0.0655555133881579
  0.0128632336379407  0.7184694055261729  0.0760033798391260
  0.8804605045717119  0.7950603323609524  0.0708156826857891
  0.7019058908413908  0.9288459765174532  0.0738960653822614
  0.5239768785743373  0.7345292379867869  0.0881313097674711
  0.2192645812277294  0.9577879412563514  0.0516207339283081
  0.9241650008301711  0.6161811029030422  0.0386166407665816
  0.9338391694908941  0.4497906215113655  0.0362829067290062
  0.5950359455781634  0.9619971175308103  0.0941088821160009
  0.7979890362421397  0.9703254519063824  0.0644109461773779
  0.7790355018723993  0.1014872615801485  0.0080677473742880
  0.2157290238773763  0.1543281637967671  0.0692411710465262
  0.9836239365235928  0.0375322447982325  0.0537321212294808
  0.9982002631608360  0.2823094963990523  0.0500022400252361
  0.9318981225650289  0.3984808466228155  0.0958221007651382
  0.1157070093461461  0.9373438733921817  0.0351347232601968
  0.6352814504749281  0.1405750701680355  0.0615828624400599
  0.5871087020713369  0.4109007807917316  0.4685938982630984
  0.4582389301387516  0.4239440318389395  0.4670424492255966
  0.5366475051206122  0.5334446220269610  0.4693895698040161
  0.6671427087186607  0.5220671532043180  0.4702566330333605
  0.3939827082110453  0.5373150623603334  0.4717152254393282
  0.3196395745036446  0.4279340935584806  0.4629670393717895
  0.7219361320033861  0.3921901518049025  0.4615669364507620
  0.4627889731660488  0.6566756764896432  0.4768109470787893
  0.6532277718010506  0.6649743532052376  0.4793462907189941
  0.6019068278931591  0.4825228221239767  0.5183021058648101
  0.5160845924585141  0.3434701642689046  0.4969303283971458
  0.5285352975813467  0.4599253055857496  0.4180716643240939
  0.6655684901221671  0.4498718463408119  0.4171985828587891
  0.3875579703541305  0.4655303684079727  0.4173829176402174
  0.4597023409894266  0.4959680691377837  0.5181833434688308
  0.4602595343407463  0.5900670612900799  0.4247061947770631
  0.6099678650281002  0.5923561939315939  0.4297913377513924
  0.7577035835714165  0.4648669332204506  0.5020680247359190
  0.7336006857901887  0.6001711162886613  0.4961787744019409
  0.2977571957328409  0.5114038959816400  0.5016028661921971
  0.3786873603240117  0.6325449208053506  0.5116466040793933
  0.2379575426938996  0.3935739988770735  0.4336052482097746
  0.3737866242800744  0.3578635009493182  0.4968088896455954
  0.7932192853229389  0.3385005115647726  0.4338699272167238
  0.6560840969762906  0.3293012366792217  0.4935159210543783
  0.4631309092817811  0.7506852757694447  0.4570249194949021
  0.5484224530817653  0.6312001314917129  0.5125150256783749
  0.6844940576047690  0.7257343194834163  0.4335021166228789
  0.6441995692459852  0.7219618635425660  0.5315766466560188
 
  0.00000000E+00  0.00000000E+00  0.00000000E+00
  0.00000000E+00  0.00000000E+00  0.00000000E+00
  0.00000000E+00  0.00000000E+00  0.00000000E+00
  0.00000000E+00  0.00000000E+00  0.00000000E+00
  0.00000000E+00  0.00000000E+00  0.00000000E+00
  0.00000000E+00  0.00000000E+00  0.00000000E+00
  0.00000000E+00  0.00000000E+00  0.00000000E+00
  0.00000000E+00  0.00000000E+00  0.00000000E+00
  0.00000000E+00  0.00000000E+00  0.00000000E+00
  0.00000000E+00  0.00000000E+00  0.00000000E+00
  0.00000000E+00  0.00000000E+00  0.00000000E+00
  0.00000000E+00  0.00000000E+00  0.00000000E+00
  0.00000000E+00  0.00000000E+00  0.00000000E+00
  0.00000000E+00  0.00000000E+00  0.00000000E+00
  0.00000000E+00  0.00000000E+00  0.00000000E+00
  0.00000000E+00  0.00000000E+00  0.00000000E+00
  0.00000000E+00  0.00000000E+00  0.00000000E+00
  0.00000000E+00  0.00000000E+00  0.00000000E+00
  0.00000000E+00  0.00000000E+00  0.00000000E+00
  0.00000000E+00  0.00000000E+00  0.00000000E+00
  0.00000000E+00  0.00000000E+00  0.00000000E+00
  0.00000000E+00  0.00000000E+00  0.00000000E+00
  0.00000000E+00  0.00000000E+00  0.00000000E+00
  0.00000000E+00  0.00000000E+00  0.00000000E+00
  0.00000000E+00  0.00000000E+00  0.00000000E+00
  0.00000000E+00  0.00000000E+00  0.00000000E+00
  0.00000000E+00  0.00000000E+00  0.00000000E+00
  0.00000000E+00  0.00000000E+00  0.00000000E+00
  0.00000000E+00  0.00000000E+00  0.00000000E+00
  0.00000000E+00  0.00000000E+00  0.00000000E+00
  0.00000000E+00  0.00000000E+00  0.00000000E+00
  0.00000000E+00  0.00000000E+00  0.00000000E+00
  0.00000000E+00  0.00000000E+00  0.00000000E+00
  0.00000000E+00  0.00000000E+00  0.00000000E+00
  0.00000000E+00  0.00000000E+00  0.00000000E+00
  0.00000000E+00  0.00000000E+00  0.00000000E+00
  0.00000000E+00  0.00000000E+00  0.00000000E+00
  0.00000000E+00  0.00000000E+00  0.00000000E+00
  0.00000000E+00  0.00000000E+00  0.00000000E+00
  0.00000000E+00  0.00000000E+00  0.00000000E+00
  0.00000000E+00  0.00000000E+00  0.00000000E+00
  0.00000000E+00  0.00000000E+00  0.00000000E+00
  0.00000000E+00  0.00000000E+00  0.00000000E+00
  0.00000000E+00  0.00000000E+00  0.00000000E+00
  0.00000000E+00  0.00000000E+00  0.00000000E+00
  0.00000000E+00  0.00000000E+00  0.00000000E+00
  0.00000000E+00  0.00000000E+00  0.00000000E+00
  0.00000000E+00  0.00000000E+00  0.00000000E+00
  0.00000000E+00  0.00000000E+00  0.00000000E+00
  0.00000000E+00  0.00000000E+00  0.00000000E+00
  0.00000000E+00  0.00000000E+00  0.00000000E+00
  0.00000000E+00  0.00000000E+00  0.00000000E+00
  0.00000000E+00  0.00000000E+00  0.00000000E+00
  0.00000000E+00  0.00000000E+00  0.00000000E+00
  0.00000000E+00  0.00000000E+00  0.00000000E+00
  0.00000000E+00  0.00000000E+00  0.00000000E+00
  0.00000000E+00  0.00000000E+00  0.00000000E+00
  0.00000000E+00  0.00000000E+00  0.00000000E+00
  0.00000000E+00  0.00000000E+00  0.00000000E+00
  0.00000000E+00  0.00000000E+00  0.00000000E+00
  0.00000000E+00  0.00000000E+00  0.00000000E+00
  0.00000000E+00  0.00000000E+00  0.00000000E+00
  0.00000000E+00  0.00000000E+00  0.00000000E+00
  0.00000000E+00  0.00000000E+00  0.00000000E+00
  0.00000000E+00  0.00000000E+00  0.00000000E+00
  0.00000000E+00  0.00000000E+00  0.00000000E+00
  0.00000000E+00  0.00000000E+00  0.00000000E+00
  0.00000000E+00  0.00000000E+00  0.00000000E+00