 SiO2-Mo9S20                            
   1.00000000000000     
    21.3948993682999991    0.0000000000000000    0.0000000000000000
     0.0000000000000000   21.3948993682999991    0.0000000000000000
     0.0000000000000000    0.0000000000000000   34.1699981689000012
   O    Si   H    Mo   S 
   236   102    64     9    20
Direct
  0.2820349031831323  0.7092644380519255  0.1018267854580558
  0.6115192316205924  0.6232790266507895  0.2019919064102725
  0.1514933997211005  0.3896314153159277  0.0912685145705173
  0.3791252712199913  0.4378703384659544  0.1419889488649981
  0.6750648969000637  0.8481634439298360  0.1343798589531533
  0.1031548037517855  0.4698582384329070  0.3511803628689920
  0.0013121278430193  0.7621554647863685  0.2980039692323364
  0.6578676040092206  0.1424352118636008  0.1961735820658795
  0.2133727927735330  0.9144812858027430  0.2050750159041132
  0.8454453508515625  0.5322597019178748  0.1029456245436110
  0.4127020145838564  0.7683701600670755  0.2092170091960379
  0.5177636367334388  0.5510258109273859  0.2263965872305281
  0.1141126373335784  0.5119793207864002  0.2131617915724496
  0.6095179576353166  0.4963009555747416  0.3355311651879977
  0.4351798730074406  0.6466288572214792  0.2207795606221935
  0.1261223314940134  0.4167534587701827  0.2801547335751088
  0.5204907995346051  0.7332628431023245  0.2368190288890554
  0.3168983252481382  0.9812417445074317  0.1984936742038599
  0.3229684506818784  0.8552671309473675  0.1924504321771522
  0.8146334569898691  0.8739092526075013  0.2735808616503972
  0.9764702986072354  0.2479430805266032  0.3098444542323637
  0.9865911317255056  0.0417062762643086  0.2919020547230787
  0.0025839947155362  0.0195329073804542  0.1746736570896354
  0.0978805436520621  0.2959859057374521  0.1260805218757679
  0.5907800103782898  0.7297527835032107  0.3007246016623799
  0.4241978483255807  0.5863023117245001  0.3385324769875288
  0.8004770403774133  0.3263366229530205  0.1656629865317003
  0.0624585442420785  0.2024292369615116  0.2620721644175074
  0.5208228595214338  0.6891446498008240  0.0878084734712993
  0.1510683292279069  0.6125726765490602  0.2500553934286300
  0.5519608595481668  0.1763710197814863  0.2319132853077183
  0.7186238309409330  0.4125868020312584  0.1936596080653229
  0.5104458852651388  0.9491788990010497  0.1242922248234247
  0.2538567507733978  0.8621621642624553  0.1093149090646326
  0.6268068123228966  0.7467646569109703  0.1741511107416525
  0.7410720645649022  0.9051295454269794  0.0784713235233117
  0.6942778865133236  0.8499884187157418  0.2794739028872896
  0.7205919677673990  0.6805502836832208  0.2010899991245591
  0.2208218926123383  0.2828616319154258  0.1798357591778078
  0.1124547567528608  0.0604648556515136  0.1016659263292896
  0.5637911408291774  0.1768304589355246  0.3209171463093887
  0.7798038241262452  0.6690559271605460  0.3485697389008334
  0.2029886063217012  0.2826918370002154  0.2560922724897407
  0.6154514262630176  0.5354171602612219  0.1300970373984030
  0.3288863336707040  0.4664208519856699  0.2111364821475530
  0.3149247536357246  0.3325770667895583  0.1393761795851452
  0.3033584272723779  0.9708665740769374  0.1215655553013543
  0.4991568598266276  0.5850446834752401  0.1267402958369418
  0.8675901962765282  0.4629524312133562  0.3009906731904212
  0.5950865130594533  0.0604169929176052  0.2934840758986396
  0.4598843513346345  0.1396335154312950  0.1847507547644413
  0.4790352315186887  0.7916313783727670  0.3021676025365748
  0.5081097338184527  0.3999275679375974  0.3312094023553173
  0.0993313224685774  0.8411789308179891  0.3038799425069985
  0.3078965027037356  0.4119879180569463  0.2779806009989195
  0.7816129548386018  0.1315135246008877  0.3408716339588462
  0.4907380190111005  0.6998986355117047  0.1626350711092305
  0.9872836255652758  0.8947077955945250  0.1668492708631093
  0.8854516283780230  0.7290444620121723  0.3286858050786493
  0.6120923344025798  0.5755910001511786  0.2730624211463180
  0.7913896328894320  0.8209853765841513  0.1259312212527532
  0.8875244796571593  0.3374901930158788  0.3108531163109071
  0.8204975122688689  0.4581362955704424  0.1638420443688971
  0.6369006419821459  0.2621241221422194  0.2274367984820042
  0.8956730125740877  0.8147145280061281  0.1623762436179284
  0.8739365692678476  0.0937959211141798  0.2953247951359810
  0.4434725736264331  0.9118902089793572  0.3162882408966229
  0.1063200869677805  0.0573671779545617  0.3073056532826166
  0.0326943152284549  0.4249038666699103  0.2258074738081780
  0.5727393808732339  0.8374732436287882  0.2642925561756911
  0.0030524164366338  0.1307576405978947  0.2110867098425904
  0.2166842601366423  0.2840871353575111  0.1026019758319157
  0.4372836403810278  0.8682431930499239  0.1649146165408202
  0.4122828990951371  0.0057692336280080  0.1527060549469357
  0.1245938796494995  0.1250769213333093  0.2156695923299360
  0.0996894092931121  0.9375665541452035  0.1769755350959155
  0.3009328195648381  0.9042227852016732  0.2602172851043059
  0.3616128544325634  0.7753440063531752  0.1409236733842864
  0.5895061854237745  0.0425907630668354  0.2161150451296779
  0.3177148970759816  0.0847335734224553  0.1506671642959831
  0.4087572248236816  0.3531718214437677  0.2501314371146487
  0.5157424817057918  0.2069846334344718  0.1304582791114239
  0.6962460296506440  0.3272810629233990  0.0619194269374804
  0.8380747100146848  0.7062808745284027  0.1508808489434221
  0.8358146042531491  0.6690920606400094  0.2261625912457617
  0.6206774322889600  0.2565513923799697  0.1058282078880067
  0.3794155172420509  0.7660263060788114  0.0668938756228339
  0.4208434028429691  0.0354295076824523  0.3046454708145983
  0.3122165618661112  0.5497058825603924  0.3149421532086288
  0.2454646126344667  0.1213026520628614  0.2135220786769097
  0.7402660962481711  0.5476844218816421  0.1439379529097468
  0.6296885421239724  0.0583724426865163  0.1429431626622432
  0.8129803008656195  0.9615188667366442  0.2177486700868003
  0.1610166381156080  0.3628521716976243  0.3470212093612873
  0.2412351661129569  0.6984077919491288  0.3099038855835639
  0.0422831530008454  0.7201052319463073  0.1510086471779832
  0.6670097151680764  0.6474225470993105  0.1350137950025284
  0.7066161225767110  0.0224288573797417  0.2004320658966154
  0.6475147132859561  0.8608166288118337  0.2067305115051291
  0.4112562190469875  0.3505433662930836  0.0890560974958305
  0.5197988824948661  0.2637962095803140  0.0600859975387342
  0.9115537084206319  0.8827561431464633  0.2267308448733436
  0.5291594516244936  0.3350013396381687  0.1232161811601471
  0.4036065227356357  0.1575705269701640  0.1166073923564938
  0.7703922294014345  0.7685929624090955  0.2454891841696153
  0.6333840948388989  0.9799279551314247  0.0832641567919380
  0.2172284351523076  0.4673322671928529  0.3252328075687989
  0.0529899242036420  0.6790893818373372  0.2225136663428250
  0.8856717088556851  0.9708577394473378  0.2804615261800776
  0.1830502366580843  0.0287766657407137  0.1800510248916901
  0.3349950613056789  0.0890700176300457  0.2629575287824093
  0.0405658371872819  0.6160360870804081  0.2890195611119927
  0.9168394106824275  0.1083875506756721  0.1588281409195737
  0.4459717785636473  0.1415807208489828  0.2612770444004853
  0.1797863496480816  0.1376152958385137  0.1458139592457170
  0.1301464719443340  0.9857366616931134  0.2445883781862788
  0.3194752322971496  0.8847150436118526  0.3361800710849673
  0.2958073942515539  0.1353808088405401  0.0795808054130064
  0.8647549625781903  0.2711490915941408  0.1087191516398019
  0.8860789577336102  0.7624952985221014  0.0902813328111851
  0.1134551835927566  0.7172622153511939  0.2861714024943183
  0.4745995801912183  0.8380176071476397  0.0936899078551375
  0.4343316974580851  0.0120321536030142  0.0741842106798644
  0.2191671351987725  0.8388558951191530  0.3047074691971350
  0.8066229342657878  0.0598212970888422  0.1676082747317173
  0.9427129951045663  0.6705717144512777  0.1869283088439334
  0.3181406677951952  0.2845885194974723  0.2829516550750736
  0.9163692074834473  0.0507303617028110  0.2274877654927013
  0.7975432517741718  0.5634783219278945  0.3076777349356417
  0.3557440937085390  0.6614586341782472  0.2915086917222586
  0.4899642321746450  0.2760447292504940  0.3273553080272567
  0.6622534884975084  0.1169841113085882  0.3464075054150461
  0.9185584785286915  0.5794551543541343  0.2921319522280887
  0.9714034237051226  0.5492258855238835  0.0991769463612846
  0.5115939774060930  0.9831092896659996  0.2657854135980965
  0.4022017413116423  0.6654210596255083  0.1123063366592909
  0.3834278885154895  0.1457118166291929  0.3281051289820334
  0.4770715359284528  0.3673929386194910  0.1876473287827323
  0.0195194055719106  0.5039756469439179  0.1636752294181658
  0.0818337698319964  0.4917552307150538  0.0965790443403972
  0.2070528527643774  0.5784236500269669  0.1840392630132209
  0.9809259732810177  0.2540371715126701  0.1339191398512067
  0.1953969346441426  0.4870065273110664  0.1305100273134968
  0.3661088361601324  0.8924857734458322  0.0756255400353608
  0.3079646908863140  0.5371051078657936  0.1481123547194506
  0.7393643131246831  0.4021439009692674  0.1171741795437555
  0.1551233304625712  0.6968455485438064  0.1175720850936115
  0.5618904900297549  0.6147441930310813  0.3379320704271220
  0.6108431367144477  0.2901783512496458  0.3023690203220749
  0.4535365158633986  0.2496806848904559  0.2186929867560414
  0.2543511480729553  0.1760556473995724  0.2819228924671771
  0.6856013117949484  0.5923485882379843  0.3338955232252522
  0.5319502178314148  0.3292179809575243  0.2514123838745243
  0.3899889630505158  0.3543692901267710  0.3262375280339018
  0.2970474506269420  0.2090091739831960  0.1405321972860326
  0.6000890815125179  0.3891352810052057  0.1782032689280376
  0.5373371416311978  0.5108851402380056  0.0696769395179626
  0.2375541126212353  0.3886319465259217  0.2177160107523632
  0.6418509307213747  0.3821720501959143  0.2504984517829257
  0.0395228715172257  0.9612138112793770  0.1107403981133301
  0.8527163046154163  0.5839363255386465  0.1716722026091925
  0.6905317064609618  0.5706014303595626  0.0734541489961727
  0.6292152988653136  0.4963673313940729  0.2153546469167546
  0.0710060513649836  0.1747887655560978  0.1152212891983247
  0.9108471873049453  0.2666859900057140  0.3753636822552140
  0.8344135284060913  0.1151123992779086  0.1012556217736024
  0.4998808218998728  0.0789214571075407  0.1227065132188727
  0.6294667297993526  0.9490366048798976  0.2616487848306034
  0.2271525123284636  0.5993829754512058  0.1070832904129392
  0.0688741728542759  0.2270435976792681  0.1864794634221045
  0.7613210050351407  0.9403073554123819  0.1510824785868384
  0.8211620251829292  0.1919129826184545  0.1621014269678928
  0.2226280011790970  0.2609434541504945  0.3317454207101125
  0.0260976278533142  0.1115437934019799  0.3532672922119066
  0.7243028089798960  0.0612338229466663  0.0935138437257550
  0.3063659129999779  0.4121413108602028  0.0788108620840080
  0.7749747730472769  0.7873779687327723  0.3229939673380980
  0.0728476510372654  0.6039220592363506  0.1294033832166487
  0.8585650625060260  0.2157909123292303  0.3143853529964746
  0.1248536961290683  0.3468045801063855  0.2138645508896876
  0.0421669910755410  0.3262737746774640  0.2702120892504692
  0.6580569691676326  0.1615954326253713  0.2717726509918693
  0.2264135534824832  0.5056289278356438  0.2463860142135793
  0.7383554331763580  0.6580648878135353  0.2757514672491796
  0.7420823250545389  0.2500300580282782  0.1166210067449335
  0.0053812100842257  0.4991541414156063  0.3084536020854644
  0.1970380715940829  0.5886173663951655  0.3354107729256665
  0.3236697795487326  0.7853704695322951  0.2851710715695427
  0.0978058775837948  0.2593794503036025  0.3261655879982753
  0.4059852083556416  0.5537622443131801  0.2641202146392397
  0.7406638721380118  0.0179153854662490  0.3564770676325664
  0.4165633171233941  0.5366047132905351  0.1857281945432250
  0.0502300497653412  0.6926184861358082  0.0755293545013689
  0.9956150668578393  0.5411708446516957  0.2349531303657778
  0.5191316303608474  0.4598213049065499  0.1403717262850466
  0.9880230675610049  0.7852082065824221  0.2075302316292407
  0.1699635482832821  0.9510804034089262  0.3130285593434480
  0.5568147782132422  0.8420313849615548  0.1524295486619243
  0.2195960848832257  0.0541442596373975  0.2783712663657318
  0.3388231285311919  0.7290980256528495  0.3552319598603720
  0.2704416603662217  0.5249378632639143  0.3858840956502090
  0.4545231350009751  0.3394745014038096  0.3914952927035796
  0.1513351980397804  0.2699860876991259  0.3963681184775442
  0.5891932968094220  0.2665947919399014  0.3756547557220566
  0.7288778727598745  0.1044456186816954  0.4116213907671342
  0.9009745441037971  0.1335753896765346  0.3671851875791497
  0.8254660717258258  0.7621375770812816  0.3930533983158848
  0.8794502663942683  0.5395574404137933  0.3631763381163340
  0.8714428583162830  0.4101668041206554  0.3712463497095523
  0.7734761643597998  0.3916710370214193  0.3200890052275827
  0.0070402648204347  0.5375066425566455  0.3805803745394490
  0.9974354609119001  0.4123988562638394  0.3661494903025974
  0.5441633172673269  0.8641281189900913  0.3525682186815036
  0.0874335529640530  0.7576323795629593  0.3587055187592301
  0.1545721000425679  0.8740122138283488  0.3710511786984036
  0.0329607284268168  0.9825852958356043  0.3516130946124792
  0.4304584751719696  0.8210293783167854  0.3709218724813695
  0.5208429360041350  0.9922392178289527  0.3451572077739613
  0.6587765891186008  0.4443496615165300  0.0620858166362568
  0.7764438092744003  0.4206661751238676  0.0429647943786041
  0.6874303878804261  0.2030775438858500  0.0519885462640006
  0.1254375244738886  0.2872602728542016  0.0495703545416194
  0.1795729114161472  0.4936421053766368  0.0513850107937912
  0.4353832428952771  0.8479517648733716  0.0192579692738778
  0.2060398538540015  0.6784620701292525  0.0463964473271056
  0.2638870355850939  0.9471211906365895  0.0494257302130042
  0.8990844358590728  0.5784362844280002  0.0386154549689037
  0.9086344660893980  0.4580347238069569  0.0593737686062885
  0.8216094372471908  0.0085068837317303  0.0575966679648734
  0.7814275407392991  0.1214836191184996  0.0334966122653646
  0.1698395369262307  0.1604309071415446  0.0690798462290458
  0.0262442094345069  0.0288575892301066  0.0456437686509750
  0.1310277904737511  0.9657745439081997  0.0550989074954671
  0.9544747316729632  0.2794487157139158  0.0574493858483200
  0.9458401404061690  0.3675143480537864  0.1150865306441661
  0.6124650397694916  0.1021460542546187  0.0691676700734051
  0.3532216875338843  0.3832291362711607  0.1127824100058311
  0.2169968435879556  0.6711513848642711  0.0934759954858591
  0.3153329257416281  0.7194563995736047  0.3091573026172212
  0.3562687587599313  0.7259187035206034  0.1054667946950891
  0.2926732827375282  0.8543753051483935  0.2960905480025275
  0.4441790788447293  0.5715557110280480  0.2242828737963921
  0.3968344432079714  0.1033444745353700  0.2890722123549973
  0.6271537862356222  0.1858848957358255  0.2304834026413514
  0.9164736887644851  0.0399136944215054  0.2747204625815266
  0.0731672353659586  0.7703501533230576  0.3115993440980513
  0.8153526712608828  0.7371259744600547  0.3485969212626754
  0.8147776844873286  0.5301300292236707  0.1468709528974014
  0.4131421921074042  0.8348179826171979  0.0641129623482035
  0.5319929900038350  0.3896462487615433  0.1571457449107910
  0.4600927833593624  0.3426667568673855  0.3432816861282977
  0.6541864728528803  0.6756357145154293  0.1787707586572247
  0.4650036353705918  0.7126714136512736  0.2072043869803293
  0.7712019450954724  0.3978875751770561  0.1601818620460656
  0.8517464454086310  0.7760795894364282  0.1327205335299252
  0.8562932484720660  0.9224593311003741  0.2486068852187270
  0.8667349664495528  0.5361224964581343  0.3155346065065522
  0.6204137673959489  0.1289531458202685  0.3078909282719796
  0.7731377857185506  0.9958769120023703  0.1836031506019377
  0.5932381845983866  0.5614593406400519  0.2280336067693794
  0.6172874441210190  0.5675396730868153  0.3198752502044147
  0.9604353359579081  0.0764074949594055  0.1924464416205549
  0.3287974451346823  0.1462565746645219  0.1229659905295764
  0.2886812313349228  0.9141299016759998  0.2136546814812696
  0.7426762841388400  0.8795342282294778  0.1240273848092130
  0.7660293400451033  0.6939276252335260  0.2377517531161047
  0.9464335943357493  0.8447754749117029  0.1918692839803374
  0.7288252145473104  0.0921745781612830  0.3643428810440451
  0.1600138184570168  0.8775394969156858  0.3232930884444165
  0.0759647311975823  0.0049279531147529  0.0788027261343748
  0.4672122806669323  0.3236438553013728  0.2262273677031028
  0.0455655854063233  0.2588291414192243  0.2919302436162861
  0.4771597826798246  0.1771172704004864  0.2244091183224446
  0.1972698841208191  0.3246771628487690  0.2163865613148845
  0.0898900398036246  0.6556263786318175  0.2614953860718588
  0.1335723306114451  0.1328741008497659  0.1074999200736402
  0.0403395704332895  0.4954310216428888  0.2089036464398832
  0.3836266446195013  0.8173256280265961  0.1776392378508216
  0.4732670165279744  0.9810903352072445  0.3075449104602681
  0.6361529195243224  0.8742013560376438  0.2532979974125926
  0.2627912636645492  0.2770100860076966  0.1402197545676249
  0.6488229963118658  0.0527289703862854  0.0967588998437895
  0.5823940372915209  0.0084693878091171  0.2584733725827230
  0.1532214686222090  0.4649408096131765  0.0925758116509057
  0.5422984133385746  0.5232360129702718  0.1166363882259632
  0.4644427651032916  0.0114299231695454  0.1181833789794246
  0.8078591891310939  0.2601692977000141  0.1395196626919947
  0.6880630638937842  0.2602159366256289  0.0838227094952729
  0.5631435473355660  0.2516037672185590  0.3315354864914891
  0.4748304741080554  0.8464598345212334  0.3359259023078509
  0.0648951086133418  0.1717338834650433  0.2189405172356890
  0.1568708122989713  0.0125269574978708  0.2860608628291982
  0.8432941329401558  0.1202781419153237  0.1486751862400806
  0.9907316554451080  0.5595893935267249  0.2809861945667796
  0.2953701081742106  0.9167754441632294  0.0884814842003911
  0.8538686964459899  0.1428788864383232  0.3290124054526259
  0.2487473505231331  0.5335113460589603  0.3400085231319115
  0.0319418296813828  0.9542076105473659  0.1581073340017071
  0.1572657244963852  0.9660650601646047  0.2018678159388633
  0.2624400133979270  0.1096215117848969  0.2595233225645085
  0.0371275933359489  0.5372503324588772  0.1223232749137498
  0.7905430502030256  0.0744310921751563  0.0717404237279016
  0.3544540454780840  0.3519056244254576  0.2836826384549932
  0.0805018571984294  0.6784052524483962  0.1190569944165729
  0.1833607069503108  0.1036888138482492  0.1884633901029749
  0.2734208878243977  0.4450067186412322  0.2398248137723661
  0.1482249365612212  0.3143265790992285  0.0921283026875279
  0.5404646127014318  0.7714610211139101  0.2764888077027113
  0.2497515557158043  0.2505646556667384  0.2879038945911637
  0.7188972921484879  0.3986735664893331  0.0710681130450803
  0.8677192644023539  0.6570221791894372  0.1832931837628083
  0.4951144554338192  0.8748021847652949  0.1341798222499031
  0.3743373458872833  0.5883746816450078  0.3023201840109092
  0.6478739375686289  0.4225813865333420  0.2092876341670247
  0.8488315892103230  0.3991828085824714  0.3249950308541633
  0.7636131569994318  0.8197844750493332  0.2806726683540235
  0.6266531754509758  0.8228146946289694  0.1675326078642793
  0.6068442376775489  0.3152686007612692  0.2570464115847813
  0.4711652570556890  0.1461519202862342  0.1377279782780917
  0.5457217630648266  0.2647668667811391  0.1048952581030893
  0.4780619849960432  0.6585540538291204  0.1225937076694452
  0.0282397300224815  0.4780050977587672  0.3519680947794988
  0.9094593074151667  0.2690315692767640  0.3270037083769621
  0.0374149749128979  0.0486750580847735  0.3273179869417171
  0.3365617414232785  0.0109681977021593  0.1561505698802676
  0.3582237249014586  0.4939668187673260  0.1713061828256804
  0.1571637084358567  0.2875041621357858  0.3500911766066618
  0.1519963790064816  0.4289160343967603  0.3248768994129907
  0.6787425670524602  0.5752723320835249  0.1211367797339209
  0.2338337860870672  0.5501591713576088  0.1427741287720542
  0.1756252040928153  0.5522017599513145  0.2244418743446245
  0.0052555247762738  0.7142642429521867  0.1928612321508300
  0.7501434663352152  0.6211543084017788  0.3166165671994889
  0.9373012695246906  0.2939833544033190  0.1034622950389918
  0.6474593928350303  0.0665808788779998  0.1883899301777771
  0.0822846808575281  0.3792965842815555  0.2479578821527383
  0.9076991119367046  0.5313048194487391  0.0758904445548979
  0.0543206987233865  0.2382784545138479  0.1403434307987211
  0.7312962078418483  0.5827653877905018  0.0635127659548213
  0.5666614107845502  0.4793985837328072  0.0599012351671025
  0.3252016294024727  0.4101965826022775  0.0529717102885240
  0.4528691903391943  0.3514284191913900  0.1011377395247213
  0.4677026414758011  0.5983344699077658  0.3339563016102067
  0.5655895947101874  0.6193522957283222  0.3664236170719739
  0.5693072052150967  0.4749907816116510  0.3375943815521631
  0.2083908866116581  0.7239210798298101  0.2981048299591203
  0.3066072231441221  0.7441560536742671  0.3729326472778909
  0.2119734729326853  0.6294144109594978  0.3253135627505986
  0.2521701383066827  0.4893135585563798  0.3997568840294666
  0.5235394826792318  0.3944860144760419  0.3044921133073941
  0.4140731347625861  0.3248602804887803  0.4007714665606599
  0.1358190393896674  0.2285302929183392  0.4024947249676335
  0.5767677976734935  0.6916902921281487  0.3141693838043703
  0.5606463090207503  0.2593939089325981  0.3972609722721046
  0.3903833782641186  0.1902589796881252  0.3249542631516403
  0.7122978344379225  0.1437501210304141  0.4211959388393607
  0.9028265017849439  0.1708738613408992  0.3838294012187532
  0.8964322690783928  0.6876802577744400  0.3190286789819055
  0.7890311976592668  0.7626705714518555  0.4101924420834687
  0.9228016155871452  0.5465498277559629  0.3721568772801773
  0.7525991633097534  0.3539425144990377  0.3288230985101118
  0.8641095962562936  0.4534509374568620  0.3799743759526708
  0.0214948144805037  0.5367171960254662  0.4074980503637728
  0.9512985247762531  0.4112188336672245  0.3696192703677257
  0.9639646174709355  0.7649161888621615  0.3144888301625114
  0.0883077765832090  0.7143617139562969  0.3672531401088936
  0.1337873992639244  0.8357733758101499  0.3798126702049828
  0.9820998111275782  0.1193475873284223  0.3605295681722119
  0.0650474245752072  0.9731023399095821  0.3708029862131124
  0.5500122976818693  0.9090995934480055  0.3567966146678747
  0.3990563799680760  0.7888066770037599  0.3648498627781512
  0.3614155730548165  0.9029190155251767  0.3350220574561138
  0.7287279209568486  0.9880141558243890  0.3764125188572988
  0.5529339687018031  0.0237229242780335  0.3403684143833530
  0.9318566646496276  0.2999248276380141  0.3895261817492878
  0.8192608183629236  0.4241522614290786  0.0524663030758079
  0.6705615932810691  0.4888647824821264  0.0603740790991375
  0.7261657185347710  0.1824527244980974  0.0429594818862278
  0.3122163753574967  0.1009479747783252  0.0640735875901527
  0.1379377285176640  0.2433490807039634  0.0463188886002776
  0.2234671520237627  0.4851715577857729  0.0464354932104715
  0.2509377456188988  0.8204714133576451  0.0983538002401677
  0.4768917644086949  0.2769120462386909  0.0555366347442274
  0.4522906491948832  0.8135820741699067  0.0041458807722023
  0.1645189086033085  0.6696230207744089  0.0363593013184767
  0.4139392772701106  0.9735651942941795  0.0655656075992129
  0.0128779958331920  0.7184973460163139  0.0760223291452543
  0.8804771924845607  0.7950576351935585  0.0708263425337339
  0.7018843104072795  0.9288557962303028  0.0739079219567254
  0.5239941492862055  0.7345292429952969  0.0881092882102015
  0.2192565519220568  0.9578468504706298  0.0516754505991248
  0.9241079092657117  0.6162241419807059  0.0386112068691252
  0.9339680947116830  0.4497953887084655  0.0363215129165014
  0.5950374761481577  0.9620045980320975  0.0941079523876934
  0.7979885436888469  0.9703146985273891  0.0644146578280030
  0.7790436166482442  0.1014971381857762  0.0080663949052757
  0.2157305118464204  0.1543652202313154  0.0692887760290539
  0.9836318080523423  0.0375107080138991  0.0537352268083616
  0.9982746662584270  0.2823655628373005  0.0499630667380928
  0.9318306377269390  0.3984608584677943  0.0958338567865339
  0.1157185578785010  0.9373546339022474  0.0351394382616588
  0.6352950204945984  0.1405745959288865  0.0615903704054831
  0.5870763304640386  0.4108537896215758  0.4688101646620559
  0.4582230055441692  0.4239218801686517  0.4674489961360110
  0.5364566092139182  0.5334531667981621  0.4695726494601086
  0.6669395889170205  0.5220828670661464  0.4702628096879528
  0.3937099006399478  0.5372632613290038  0.4720242050488949
  0.3194963403981929  0.4279117177555633  0.4634139395865214
  0.7218607084427594  0.3922050209956787  0.4615655650774914
  0.4625023125473106  0.6566896097096401  0.4768188215988867
  0.6529219191304079  0.6650566255252242  0.4791875431842503
  0.6018861715314995  0.4825992340093782  0.5184484075148483
  0.5160642152749255  0.3434168026699010  0.4972199493024416
  0.5283612236910270  0.4597787344486991  0.4183289132444236
  0.6653029757894453  0.4497879647731376  0.4172551412512452
  0.3874741379998988  0.4652367171282085  0.4177706298183214
  0.4595781072600859  0.4961119342033614  0.5184878089513090
  0.4598797303424655  0.5897737973872739  0.4248726241328142
  0.6096355702297885  0.5922249896579393  0.4297832745030126
  0.7576464122874685  0.4649089333871790  0.5020326420793249
  0.7333656134635120  0.6003152094085508  0.4960270183540872
  0.2973657207253163  0.5115907782942352  0.5018575578164739
  0.3784650639775176  0.6327019099967063  0.5117569868787781
  0.2377574371441815  0.3935817935975566  0.4341207863311489
  0.3737412423048582  0.3578158962145425  0.4971945977260596
  0.7931369769680524  0.3385260598263728  0.4338553457121962
  0.6561341782117810  0.3292300776530271  0.4935520267203419
  0.4629410081565144  0.7506558741949175  0.4569424916030414
  0.5481469265814273  0.6313513565173534  0.5125480723539128
  0.6840050989447635  0.7259371880665586  0.4333625872034664
  0.6440129258750326  0.7220219601389234  0.5314329435800644
 
  0.00000000E+00  0.00000000E+00  0.00000000E+00
  0.00000000E+00  0.00000000E+00  0.00000000E+00
  0.00000000E+00  0.00000000E+00  0.00000000E+00
  0.00000000E+00  0.00000000E+00  0.00000000E+00
  0.00000000E+00  0.00000000E+00  0.00000000E+00
  0.00000000E+00  0.00000000E+00  0.00000000E+00
  0.00000000E+00  0.00000000E+00  0.00000000E+00
  0.00000000E+00  0.00000000E+00  0.00000000E+00
  0.00000000E+00  0.00000000E+00  0.00000000E+00
  0.00000000E+00  0.00000000E+00  0.00000000E+00
  0.00000000E+00  0.00000000E+00  0.00000000E+00
  0.00000000E+00  0.00000000E+00  0.00000000E+00
  0.00000000E+00  0.00000000E+00  0.00000000E+00
  0.00000000E+00  0.00000000E+00  0.00000000E+00
  0.00000000E+00  0.00000000E+00  0.00000000E+00
  0.00000000E+00  0.00000000E+00  0.00000000E+00
  0.00000000E+00  0.00000000E+00  0.00000000E+00
  0.00000000E+00  0.00000000E+00  0.00000000E+00
  0.00000000E+00  0.00000000E+00  0.00000000E+00
  0.00000000E+00  0.00000000E+00  0.00000000E+00
  0.00000000E+00  0.00000000E+00  0.00000000E+00
  0.00000000E+00  0.00000000E+00  0.00000000E+00
  0.00000000E+00  0.00000000E+00  0.00000000E+00
  0.00000000E+00  0.00000000E+00  0.00000000E+00
  0.00000000E+00  0.00000000E+00  0.00000000E+00
  0.00000000E+00  0.00000000E+00  0.00000000E+00
  0.00000000E+00  0.00000000E+00  0.00000000E+00
  0.00000000E+00  0.00000000E+00  0.00000000E+00
  0.00000000E+00  0.00000000E+00  0.00000000E+00
  0.00000000E+00  0.00000000E+00  0.00000000E+00
  0.00000000E+00  0.00000000E+00  0.00000000E+00
  0.00000000E+00  0.00000000E+00  0.00000000E+00
  0.00000000E+00  0.00000000E+00  0.00000000E+00
  0.00000000E+00  0.00000000E+00  0.00000000E+00
  0.00000000E+00  0.00000000E+00  0.00000000E+00
  0.00000000E+00  0.00000000E+00  0.00000000E+00
  0.00000000E+00  0.00000000E+00  0.00000000E+00
  0.00000000E+00  0.00000000E+00  0.00000000E+00
  0.00000000E+00  0.00000000E+00  0.00000000E+00
  0.00000000E+00  0.00000000E+00  0.00000000E+00
  0.00000000E+00  0.00000000E+00  0.00000000E+00
  0.00000000E+00  0.00000000E+00  0.00000000E+00
  0.00000000E+00  0.00000000E+00  0.00000000E+00
  0.00000000E+00  0.00000000E+00  0.00000000E+00
  0.00000000E+00  0.00000000E+00  0.00000000E+00
  0.00000000E+00  0.00000000E+00  0.00000000E+00
  0.00000000E+00  0.00000000E+00  0.00000000E+00
  0.00000000E+00  0.00000000E+00  0.00000000E+00
  0.00000000E+00  0.00000000E+00  0.00000000E+00
  0.00000000E+00  0.00000000E+00  0.00000000E+00
  0.00000000E+00  0.00000000E+00  0.00000000E+00
  0.00000000E+00  0.00000000E+00  0.00000000E+00
  0.00000000E+00  0.00000000E+00  0.00000000E+00
  0.00000000E+00  0.00000000E+00  0.00000000E+00
  0.00000000E+00  0.00000000E+00  0.00000000E+00
  0.00000000E+00  0.00000000E+00  0.00000000E+00
  0.00000000E+00  0.00000000E+00  0.00000000E+00
  0.00000000E+00  0.00000000E+00  0.00000000E+00
  0.00000000E+00  0.00000000E+00  0.00000000E+00
  0.00000000E+00  0.00000000E+00  0.00000000E+00
  0.00000000E+00  0.00000000E+00  0.00000000E+00
  0.00000000E+00  0.00000000E+00  0.00000000E+00
  0.00000000E+00  0.00000000E+00  0.00000000E+00
  0.00000000E+00  0.00000000E+00  0.00000000E+00
  0.00000000E+00  0.00000000E+00  0.00000000E+00
  0.00000000E+00  0.00000000E+00  0.00000000E+00
  0.00000000E+00  0.00000000E+00  0.00000000E+00
  0.00000000E+00  0.00000000E+00  0.00000000E+00