 O Si  H Mo  S                          
   1.00000000000000     
    21.3948993682999991    0.0000000000000000    0.0000000000000000
     0.0000000000000000   21.3948993682999991    0.0000000000000000
     0.0000000000000000    0.0000000000000000   34.1699981689000012
   O    Si   H    Mo   S 
   236   102    66     1     4
Direct
  0.2818933736462835  0.7114568463084180  0.1007985953161800
  0.6118494042700150  0.6253072686172283  0.2035690997446052
  0.1517579596119336  0.3907282226818045  0.0914951728678494
  0.3798617625270915  0.4414546892023248  0.1408848214774011
  0.6762611665680635  0.8486674424204246  0.1352263930881263
  0.1036031823148310  0.4682621355015887  0.3532217716800026
  0.0039289370281593  0.7610275093747144  0.2999856565166656
  0.6589016692417803  0.1438073857301643  0.1964761113145458
  0.2143389299399868  0.9166208707991855  0.2057619590611942
  0.8450200949631570  0.5327103573074777  0.1029975919519056
  0.4113901269133419  0.7687734793723068  0.2088293737147464
  0.5185338950531787  0.5519748798897046  0.2265203916600353
  0.1143292177856424  0.5137834772221718  0.2159245875223893
  0.6044946359529318  0.5027749705801906  0.3412170294543023
  0.4357493917212010  0.6478027620267798  0.2216639306467128
  0.1250225351177423  0.4187831045157849  0.2811989888746272
  0.5196437912940244  0.7362913989369819  0.2369353063214618
  0.3178954804387021  0.9830910591578117  0.1995514947448937
  0.3229483502842863  0.8573065033243517  0.1917424853960197
  0.8135386168661354  0.8757372473559950  0.2737305410395325
  0.9763237007845892  0.2479650343149985  0.3098663257055886
  0.9874988110272007  0.0426883335645711  0.2917676038700293
  0.0032843782415545  0.0209251729811005  0.1753828976012090
  0.0991891683436876  0.2968175070004144  0.1271302342325538
  0.5927454253900424  0.7334933061761513  0.2995022969962783
  0.4253355756405174  0.5845695365903041  0.3398486118661215
  0.8006006078061372  0.3268796468301494  0.1656980549649983
  0.0645827222617163  0.2041453760879266  0.2630812908430640
  0.5209757038782015  0.6916188077913543  0.0884802476928926
  0.1535648267951806  0.6141959010411356  0.2518301700358252
  0.5527160097430903  0.1779323729794891  0.2316370650096166
  0.7184269864023166  0.4129957735169707  0.1932122662479351
  0.5110664769110043  0.9501491981599450  0.1247501429539049
  0.2532769273893445  0.8641354754883559  0.1086899306526904
  0.6272943965733677  0.7480801098393256  0.1748334734449112
  0.7414730200800349  0.9053716809188723  0.0789766395066689
  0.6934063229411623  0.8508246596827634  0.2800664530487771
  0.7211401903176732  0.6820693607013971  0.2016926107962695
  0.2234388068451447  0.2845017673066443  0.1815783560511554
  0.1123218199954333  0.0616377976509302  0.1025095049365096
  0.5645206743142566  0.1819157592299120  0.3209477827255661
  0.7795876406736415  0.6714616822644046  0.3489789283033174
  0.2075148184376799  0.2856549117471475  0.2580267502119604
  0.6147308939848206  0.5361585994708230  0.1307638098499230
  0.3320384461628951  0.4648382941044178  0.2113446097398944
  0.3166645071116075  0.3354522273777552  0.1405963317926511
  0.3022494257344640  0.9729547146580243  0.1225808554325802
  0.4988306742810599  0.5866555688902619  0.1261930845891461
  0.8702780975742525  0.4645904729852085  0.3027795516713387
  0.5926297828091992  0.0636962257411779  0.2934490411870808
  0.4601673132321779  0.1398878953148284  0.1851788335381447
  0.4796186417056638  0.7925122968331717  0.3033736736399872
  0.5148817377129888  0.4125526630909253  0.3188906029350749
  0.0998973034927195  0.8432408343598783  0.3043809153091960
  0.3097144097029990  0.4143772676014219  0.2787261234305558
  0.7812444927013901  0.1300538044921611  0.3398533306013020
  0.4907464265115678  0.7003977346786000  0.1631512606821585
  0.9885439590375935  0.8958283683265839  0.1682763124957753
  0.8858205024237483  0.7289014359780612  0.3283145426697595
  0.6122984901825963  0.5733089725272209  0.2742997942418574
  0.7925416953292506  0.8217980834706180  0.1266767496398611
  0.8874132613748209  0.3380348696072157  0.3111114962255389
  0.8208387707840963  0.4586784277038327  0.1639687240982383
  0.6379745915741654  0.2638329036704893  0.2272159386255781
  0.8967422391856302  0.8155982855273014  0.1631063832798861
  0.8747961374915265  0.0944548237414734  0.2951638675382529
  0.4441271113561552  0.9123787686162892  0.3164556862751662
  0.1071153053654541  0.0598062836271740  0.3076182006617913
  0.0335133814422529  0.4252882055471962  0.2259799209565539
  0.5712896487755206  0.8412491530021873  0.2644735647168484
  0.0037868994541201  0.1313883847859375  0.2128178627570098
  0.2181525193764226  0.2866522778744199  0.1043274796701405
  0.4378700142387276  0.8689384238805198  0.1652188308832266
  0.4122546167294889  0.0065419943432269  0.1527008017294967
  0.1251770312099344  0.1277137237841070  0.2152500969930922
  0.1007670064239072  0.9395234750474452  0.1774287470399177
  0.3028298072353103  0.9029495498909385  0.2603759259844517
  0.3609637930848507  0.7776737351202947  0.1403434779258159
  0.5904854994047843  0.0436869622423169  0.2162408862622328
  0.3184437919435600  0.0866600690185075  0.1516555102185630
  0.4090564743512872  0.3530017985957337  0.2503334544631716
  0.5163924992396797  0.2082399097288476  0.1315950716969170
  0.6961433330394396  0.3279894644701253  0.0621900224157321
  0.8393467566797155  0.7071085192489026  0.1511885760143423
  0.8362839886357072  0.6698896278808191  0.2263558614106347
  0.6210885699960940  0.2578905577375514  0.1066734908601365
  0.3797043688347080  0.7684804282458427  0.0665109096231450
  0.4213230347161956  0.0360812924441333  0.3046017632458515
  0.3140876867907899  0.5473319833904238  0.3149291427688842
  0.2458296538764569  0.1245651942239833  0.2140056566420085
  0.7401278623590843  0.5481294989427944  0.1446037552176863
  0.6311258146532284  0.0597343803528861  0.1432183564168443
  0.8146425825080488  0.9625360833019121  0.2178717295950475
  0.1665491689105716  0.3641645388131515  0.3464117119965899
  0.2418564397103533  0.6954456570769169  0.3153409529998961
  0.0436292243576768  0.7203988338907112  0.1516996204674049
  0.6668882473150630  0.6479081100259789  0.1361019835129088
  0.7081217267757799  0.0239908451030825  0.2005845738736531
  0.6479607150488585  0.8624412322956386  0.2074549376917741
  0.4115388594569457  0.3535264463781821  0.0886257979956261
  0.5207132312119362  0.2640327398898017  0.0607459588377550
  0.9121895356372896  0.8822453328848567  0.2278909004455844
  0.5291556608348186  0.3363073286576166  0.1234424662123145
  0.4044445623766834  0.1582782858958985  0.1168489102844952
  0.7708202712938467  0.7687623285702646  0.2473223058976495
  0.6338417248118406  0.9804956443026270  0.0837640786580994
  0.2159558668445220  0.4719303879643914  0.3233098036753000
  0.0542199546631982  0.6795975829954874  0.2233269910053127
  0.8870711673469196  0.9711487316684259  0.2809493706785824
  0.1843972229713419  0.0308478637225386  0.1803447590847487
  0.3368242674519192  0.0898726646500280  0.2618560839211452
  0.0421653560728025  0.6168603553596536  0.2895976463040290
  0.9185509376105392  0.1105815136739160  0.1592069343492679
  0.4476846498432207  0.1426867496011586  0.2620159256855413
  0.1816220183396951  0.1389261982414499  0.1457059241416863
  0.1316605596283317  0.9887944651839293  0.2447917175965702
  0.3208475058947794  0.8837243812408079  0.3362093340894182
  0.2956891942505301  0.1362079248303303  0.0805219708724962
  0.8651022136568490  0.2714277608085322  0.1088017857060369
  0.8875991349240059  0.7638990869960902  0.0908823047314501
  0.1158364246523529  0.7186616305573921  0.2867192701682179
  0.4754328601737627  0.8386270134501256  0.0941271504233376
  0.4355579039102968  0.0126770921394641  0.0743434311396668
  0.2190765602012608  0.8405421875851671  0.3048864924056712
  0.8085970934949674  0.0604475809652428  0.1676728111370264
  0.9436692833971065  0.6708718322313849  0.1874885631098968
  0.3208229372301474  0.2890574032505041  0.2891595309916999
  0.9165944510886572  0.0513105243231131  0.2276008918312288
  0.7984175829038362  0.5647383618917396  0.3098024519223886
  0.3563734152683301  0.6607953310425100  0.2938316415367566
  0.4968929772465713  0.2877252376001431  0.3301695302301272
  0.6609593005663249  0.1186070701308678  0.3463657718965127
  0.9199390524472035  0.5808043839248532  0.2938638620224079
  0.9708246443247719  0.5486670024134082  0.1004750505973453
  0.5118787178351661  0.9836691436434370  0.2656330611528935
  0.4020595347165178  0.6677027685267066  0.1122131571013984
  0.3833496821397919  0.1451012320510465  0.3283248315721425
  0.4759270304014905  0.3686180402342219  0.1876001265872271
  0.0214558773246552  0.5054014296260081  0.1647954550901332
  0.0813585720990200  0.4921067702395932  0.0967292978184439
  0.2043255875361808  0.5807448826297831  0.1838331709212416
  0.9813936483742781  0.2561988462844563  0.1338222871604903
  0.1947987285117770  0.4883287934568977  0.1310444008391177
  0.3670821273911593  0.8947365292792612  0.0777590751559354
  0.3067392465296641  0.5380098223772988  0.1500764556242579
  0.7404175108936067  0.4031093203634253  0.1168509343323646
  0.1553625514691089  0.6973091634442834  0.1173356288338757
  0.5613126952529848  0.6217943698142263  0.3360566315619989
  0.6141049717052790  0.2930692700694130  0.3019713261830119
  0.4534396631053526  0.2500215515477949  0.2185513437554386
  0.2604302881823076  0.1791359728335936  0.2821149014070051
  0.6848416100717706  0.5953572628159037  0.3350925763892527
  0.5327366567489361  0.3294235985510993  0.2503755945213656
  0.3979508873176971  0.3652320441632982  0.3263599834313656
  0.2997285735138816  0.2117126159960948  0.1409506579435168
  0.5990925402705835  0.3917512251187064  0.1783225465937599
  0.5373610893029375  0.5111964797459205  0.0699349646392042
  0.2375632117896413  0.3915327104394219  0.2187606204458912
  0.6413013502755345  0.3850896546896302  0.2501954158478637
  0.0396936739518680  0.9620420102852109  0.1114971892692611
  0.8529262519597620  0.5847151055499186  0.1717013024754767
  0.6898084893867003  0.5709971318247379  0.0743248048401347
  0.6305762660812436  0.4986169062641048  0.2150601356097920
  0.0712181795325501  0.1755391267955085  0.1168649546468171
  0.9110829299803154  0.2669857331260553  0.3754461860318797
  0.8356772163516450  0.1153670715149924  0.1013980920747452
  0.5005469707681410  0.0797171069809957  0.1233309470452740
  0.6303208437277023  0.9515348092141899  0.2626544749125580
  0.2288571154037543  0.6006752724801394  0.1074346062995797
  0.0668038006996842  0.2291628868644655  0.1875053837960474
  0.7622413339743954  0.9411736475476717  0.1514657050380165
  0.8216996061981080  0.1925624469685919  0.1622053425474345
  0.2215658754465934  0.2582040801511241  0.3334112248739948
  0.0256115550430127  0.1115666324505310  0.3538859524041530
  0.7249715044725361  0.0618177925485594  0.0935724010611429
  0.3054703524323737  0.4127689998926686  0.0790939668758166
  0.7750172181746722  0.7904017736317976  0.3244110232483345
  0.0730773360198467  0.6043436401156321  0.1291106359039877
  0.8581740079436824  0.2161779886248997  0.3146564881724846
  0.1262877281706364  0.3464987973795193  0.2159008959061940
  0.0416185992938839  0.3276688866020083  0.2711825804830152
  0.6583340748644406  0.1629087412764776  0.2718162356160106
  0.2297465213174156  0.5086620422206646  0.2454670026130200
  0.7390006859319170  0.6573122669121529  0.2760304089740979
  0.7424420982599880  0.2503699595762219  0.1166216343771355
  0.0078742511392620  0.5002535702785207  0.3094802168915830
  0.2148407785858833  0.5875825497429746  0.3554999899540657
  0.3215047152810374  0.7831435288689269  0.2862561892877387
  0.0968818815387234  0.2628073288960610  0.3278126033957346
  0.4076224155889390  0.5542634649355646  0.2648328374502465
  0.7380045723905165  0.0180112653307690  0.3552494879392314
  0.4171113519266239  0.5383127747408932  0.1861265863158048
  0.0493582737380258  0.6933300106309503  0.0759376904307087
  0.9953921850246691  0.5413671163957162  0.2362152534490815
  0.5174866301064117  0.4614142639297860  0.1405691323143313
  0.9893264736257762  0.7855170033528726  0.2080253103341459
  0.1711089777412882  0.9537002432332552  0.3126868264426080
  0.5576545330919340  0.8435116681915962  0.1529689709948854
  0.2207541688593466  0.0579930761539292  0.2789824858705355
  0.3409585469082073  0.7310932069871546  0.3569010498932174
  0.2854947677124254  0.4985589780055251  0.3858161764396613
  0.4792448844987192  0.3665980749170731  0.3876051349815950
  0.1508628954316179  0.2747331820180930  0.3977751311179195
  0.5957129715462449  0.2633037889936419  0.3769044589075038
  0.7282899288014454  0.1047544511649843  0.4108591403125754
  0.9000393118393714  0.1334698769863282  0.3672238051393838
  0.8282104033019695  0.7636954946292501  0.3928640190520779
  0.8803764344200236  0.5411823884113800  0.3649902732193009
  0.8678493088300613  0.4087866902042149  0.3722848266044121
  0.7738952370925657  0.3943472590649115  0.3174641776815085
  0.0080063902811936  0.5370975743951281  0.3820313104792711
  0.9959115580235229  0.4125204637570826  0.3662446798014686
  0.5449751803388048  0.8656923653184312  0.3534684594113063
  0.0924094064439183  0.7601592959308305  0.3594162463211237
  0.1555700313548129  0.8788457426493488  0.3711619469146877
  0.0338424042572996  0.9830457724234418  0.3510978350175564
  0.4318174695279138  0.8229779777531701  0.3724009219427928
  0.5212307819823816  0.9927370995162377  0.3450277403790560
  0.6586393604764254  0.4449152198632501  0.0623610628356532
  0.7758475196370790  0.4208261448942521  0.0421398998538588
  0.6871078570598202  0.2038434798010947  0.0522141213368803
  0.1276792707800142  0.2875017631374062  0.0506157285976770
  0.1795738958558384  0.4955302262860408  0.0520312926246712
  0.4349369866195464  0.8535514355352539  0.0202210745312870
  0.2050338785662607  0.6775005599105273  0.0461778577983137
  0.2665006616701417  0.9499341491665754  0.0495208519332526
  0.9002568968804233  0.5825038599381213  0.0398841661037843
  0.9083355590134184  0.4608535423248059  0.0578232286496145
  0.8219875054829769  0.0090931931250029  0.0576407110637765
  0.7819666381590430  0.1226894391779858  0.0339256450931208
  0.1688174911957576  0.1621841153268785  0.0694590588729915
  0.0269921372611149  0.0291736745197887  0.0460588935981299
  0.1318064880098587  0.9667298209231074  0.0562225632957593
  0.9545104109724650  0.2794916494421240  0.0572965846224769
  0.9451934886867372  0.3689451023004872  0.1140541624282336
  0.6126993931279880  0.1025427475968912  0.0693648398796473
  0.3536923261427665  0.3855508570030403  0.1128182494555382
  0.2172880864333863  0.6719249782803911  0.0932043875279944
  0.3152727282063411  0.7183526316505444  0.3116767876833377
  0.3561719425487110  0.7280926573589271  0.1049195644252884
  0.2929752756876290  0.8535013080827041  0.2964153763994026
  0.4449247719921480  0.5727304113677794  0.2248578787184914
  0.3976800042368498  0.1040895016828538  0.2890354619322445
  0.6279008459850070  0.1876247794132003  0.2305007802785547
  0.9173099491374708  0.0404513234573709  0.2748091393307521
  0.0759900587298626  0.7718377794298538  0.3125218373473137
  0.8162596915775088  0.7387527452349658  0.3484334196685331
  0.8147934424568390  0.5307459263352285  0.1470685309665932
  0.4135580471020819  0.8373896061194920  0.0648335351808578
  0.5310045116366197  0.3912950489153333  0.1572657506552317
  0.4708743256880707  0.3583957805584452  0.3404991203751658
  0.6544742901310187  0.6769582798616809  0.1796980377303846
  0.4646034280694772  0.7139384261841860  0.2075255833490379
  0.7715661425099568  0.3984817512048676  0.1600330369735986
  0.8530240572960074  0.7770772300954127  0.1332947769747399
  0.8570210848267901  0.9231388179410210  0.2490485906871367
  0.8679726883780662  0.5376701480105784  0.3174465132261576
  0.6192418512088583  0.1319437058076224  0.3079303963138781
  0.7744879790977788  0.9969359737902407  0.1838237554443120
  0.5938444350039207  0.5625836746359401  0.2287743987967073
  0.6159616195539114  0.5712830558432154  0.3213921728335255
  0.9612407698891916  0.0778685182330971  0.1931059573163327
  0.3295520535804891  0.1478369363634849  0.1235914575582966
  0.2896712935867875  0.9155202189961901  0.2141718475070754
  0.7436367860738403  0.8802056071142197  0.1246048281652953
  0.7665837930682997  0.6944365013328404  0.2384552077997391
  0.9475783727359440  0.8453003447450802  0.1927462319783331
  0.7274644713894448  0.0924783302593181  0.3635303108565483
  0.1608125788922463  0.8803203128714195  0.3233212570964908
  0.0763422791913067  0.0057480273004090  0.0795810504319944
  0.4671845898173069  0.3239267810922551  0.2259533779096495
  0.0458087031667900  0.2602546766012084  0.2928460711176511
  0.4778196127824343  0.1777888744234126  0.2246402210131483
  0.1993796943838603  0.3264273096318467  0.2180514936952131
  0.0914837967418136  0.6568908657955299  0.2623373704672093
  0.1336779272487876  0.1340389487456516  0.1082197435109960
  0.0410608781977601  0.4964711219725568  0.2101692130377875
  0.3833783157927090  0.8186266932037165  0.1774044169112699
  0.4735770478754691  0.9816253168848995  0.3074367047106142
  0.6358053063220873  0.8765868708950135  0.2538767999284603
  0.2648357092472916  0.2794310939805775  0.1415918893292407
  0.6494856677452421  0.0534399110014526  0.0970041639682852
  0.5823469718609601  0.0104763368164883  0.2588279889923610
  0.1530830962406942  0.4660155038499624  0.0929481277177401
  0.5416706782188507  0.5243951593974929  0.1168107998679225
  0.4649348610044145  0.0123571277129531  0.1185078000547824
  0.8081451161524691  0.2607149408552295  0.1395715549902195
  0.6880681303168582  0.2609436422954172  0.0841161408591649
  0.5671318763084415  0.2563509186225531  0.3327720399937089
  0.4755286053806342  0.8476398249887802  0.3369698657589907
  0.0651754602258455  0.1735691101200804  0.2197951928517463
  0.1582309330357707  0.0156583513309464  0.2862432511766375
  0.8447374154476779  0.1212221963301563  0.1487909453226853
  0.9918663996012631  0.5604930239598046  0.2821890361765489
  0.2958041671168801  0.9191054893411517  0.0891802184951897
  0.8535467967725163  0.1429553510761640  0.3288375236010021
  0.2575032110474819  0.5270586336380357  0.3448131525626432
  0.0326363652703111  0.9555672711925776  0.1589350685946078
  0.1584255654507258  0.9682694570582205  0.2021962212020741
  0.2646386163114455  0.1123472558137458  0.2596404723012108
  0.0372455965285284  0.5375543324250913  0.1228784655701839
  0.7912602013202019  0.0751296699214773  0.0719179379349189
  0.3579711992890641  0.3559188253249279  0.2858092107862882
  0.0807853619354010  0.6788721774451079  0.1191629212024577
  0.1843980242306549  0.1058178609473888  0.1886758592458502
  0.2756421187816834  0.4469328121356739  0.2403183112909870
  0.1494473975034306  0.3154318759565476  0.0931231492517482
  0.5403719414343433  0.7743840992702713  0.2764884666993671
  0.2529148879121887  0.2529180590808323  0.2903037098540607
  0.7189735579291658  0.3993476353307827  0.0709307471532622
  0.8685187361122374  0.6576022384635749  0.1835815948410087
  0.4957879884177587  0.8757908953082869  0.1346160850688987
  0.3757497425287298  0.5875679587043697  0.3034902003669036
  0.6479741312874610  0.4246595378988737  0.2088519858890373
  0.8488338142321221  0.4000301766928287  0.3251453385986029
  0.7630423803931967  0.8213717101057534  0.2815087511671217
  0.6273191361382395  0.8241619806394260  0.1682700748503950
  0.6078592726580553  0.3171879077378673  0.2567347303809344
  0.4718273453495251  0.1470153337838319  0.1382285013900168
  0.5460889326546020  0.2658242340820988  0.1056619414900355
  0.4778426156924540  0.6602066604077926  0.1227409003203871
  0.0287694008099098  0.4778385525866897  0.3531297026449546
  0.9093429926440009  0.2693416072043945  0.3270707099602906
  0.0381176602848010  0.0495999957373996  0.3273261617833277
  0.3367249829625938  0.0126693353810515  0.1569442858081047
  0.3590020215488471  0.4953298616649954  0.1717140934355195
  0.1577593516249225  0.2892525284936411  0.3511237041940061
  0.1528817113355213  0.4304913789660176  0.3253826037095928
  0.6783030758524022  0.5757671898573158  0.1220330436768921
  0.2331361613693559  0.5515774535481022  0.1433415557114535
  0.1766075033980703  0.5541072681790999  0.2251632263985757
  0.0063998560805750  0.7144706372911326  0.1934644526813544
  0.7502468561266843  0.6222645989027131  0.3176322025245326
  0.9373116956907775  0.2950331388496953  0.1031433763416091
  0.6486556928561144  0.0679425922914697  0.1887135336054568
  0.0825515543275055  0.3801340943963065  0.2489482766181849
  0.9075972218530027  0.5330292658397007  0.0761212094724362
  0.0543903236819751  0.2398678886835880  0.1411139504983339
  0.7302174279887664  0.5840186269019321  0.0642039521908499
  0.5667576720819931  0.4795798287848047  0.0604195393562813
  0.3237829913421367  0.4107980713999790  0.0531148062123730
  0.4531750549276262  0.3535856570819497  0.1006682467817553
  0.4682296817220884  0.5979815410954270  0.3346413892558340
  0.5553746192099882  0.6294950334391423  0.3642575076388687
  0.5712325031123133  0.4737699144667427  0.3325867547095904
  0.2075685512444699  0.7154789188460956  0.3011473777390335
  0.3086454168769699  0.7391158308294861  0.3762170220875086
  0.2221071037393565  0.6259821411882391  0.3400496859816406
  0.2948411286335052  0.4542257508603273  0.3860986204832619
  0.5208036391886330  0.4048795336636837  0.2909464210890789
  0.4684449497794548  0.4065854322490577  0.3998905246651843
  0.1368362322068105  0.2331674986215755  0.4049289682090245
  0.5791596122017768  0.6951716865853615  0.3129827507962801
  0.5745932052001695  0.2928607701888509  0.3940105971351603
  0.3827115627578777  0.1902393881726870  0.3255977055967664
  0.7051275834421147  0.1406338923863344  0.4203934665466942
  0.9023754017793814  0.1709640042764028  0.3836778840836335
  0.8948677832657891  0.6888106536319177  0.3160393230741095
  0.7972866864506173  0.7914150403581129  0.4041442267201373
  0.9237295726427884  0.5470989838226030  0.3741878769123787
  0.7517126518563927  0.3558038123527305  0.3228498374688535
  0.8603054892821501  0.4516510209734085  0.3815158761557902
  0.0252913090322201  0.5378182045685330  0.4082888277568897
  0.9499841501313645  0.4120001739890068  0.3702514526830451
  0.9667680070066731  0.7652724182257025  0.3164399385914904
  0.0935645287844676  0.7172116585261062  0.3685563466931430
  0.1370532721481838  0.8399524931047367  0.3807253523907281
  0.9814254571766534  0.1188218191865894  0.3608815254917657
  0.0662809636837976  0.9726184281796282  0.3698716366441501
  0.5505723108960165  0.9109182708938744  0.3568342340447092
  0.3992003502339535  0.7917577015570135  0.3666597859429564
  0.3622081444241624  0.9030921733154784  0.3345562120707483
  0.7194277612790392  0.9883108707487820  0.3732023469449425
  0.5516132631597801  0.0260765897915420  0.3408959800228372
  0.9366430975140129  0.2976015708945125  0.3890044703342709
  0.8186092712635012  0.4257804368433469  0.0514865473180595
  0.6702364613282318  0.4895024577548296  0.0608680019921533
  0.7259657571722911  0.1832098846857793  0.0433477901565110
  0.3113786531941548  0.1010299556056116  0.0653733170757695
  0.1395410241643022  0.2432433704285141  0.0480261995490817
  0.2235660764528248  0.4875180017819791  0.0471389839747165
  0.2528789651899331  0.8218889018429910  0.0984245928038342
  0.4778738108823454  0.2769494086869809  0.0557722981433821
  0.4559708138413014  0.8218230078893517  0.0048773756330269
  0.1630192109129037  0.6692845634434169  0.0367869680237420
  0.4148625146458314  0.9743002215094502  0.0658489762336309
  0.0142317736699005  0.7221529618426235  0.0765711386319336
  0.8801231039888403  0.7954722526734128  0.0710434751654447
  0.7022744757132142  0.9291477900540015  0.0745357995844273
  0.5232931074322787  0.7370487944508448  0.0888752247723606
  0.2218128529718219  0.9605601298076685  0.0512125527204836
  0.9255044555668587  0.6201198189402289  0.0412157937391018
  0.9333230879040939  0.4540872535503299  0.0344541845260904
  0.5953961404981067  0.9628674167790814  0.0946719718855331
  0.7982996986378049  0.9710103403078812  0.0645050052599012
  0.7795739088327236  0.1030623782960071  0.0083810743090172
  0.2147327439505247  0.1562577029235986  0.0695259463581581
  0.9843602681153608  0.0382534314032483  0.0539392784342041
  0.9982104560060964  0.2828144840726253  0.0497222589445929
  0.9318972889326554  0.3993688268729305  0.0942936420724842
  0.1168589447899695  0.9373375365134394  0.0367077652790768
  0.6352242046985456  0.1411506227590602  0.0618000991362063
  0.5304026605377475  0.6865451263332276  0.4431249284741278
  0.5997996753781518  0.5061648894473438  0.3991357501347056
  0.5085384212342766  0.5575922859131803  0.4487438307818571
  0.4362722705321202  0.5004642114540037  0.4251737038392158
  0.5011463614225179  0.5658215988528560  0.5103251655660636
  0.4922549249566071  0.6543443634884323  0.4186894384479178
  0.6071632229774260  0.5184631400529079  0.4383226533143652
 
  0.00000000E+00  0.00000000E+00  0.00000000E+00
  0.00000000E+00  0.00000000E+00  0.00000000E+00
  0.00000000E+00  0.00000000E+00  0.00000000E+00
  0.00000000E+00  0.00000000E+00  0.00000000E+00
  0.00000000E+00  0.00000000E+00  0.00000000E+00
  0.00000000E+00  0.00000000E+00  0.00000000E+00
  0.00000000E+00  0.00000000E+00  0.00000000E+00
  0.00000000E+00  0.00000000E+00  0.00000000E+00
  0.00000000E+00  0.00000000E+00  0.00000000E+00
  0.00000000E+00  0.00000000E+00  0.00000000E+00
  0.00000000E+00  0.00000000E+00  0.00000000E+00
  0.00000000E+00  0.00000000E+00  0.00000000E+00
  0.00000000E+00  0.00000000E+00  0.00000000E+00
  0.00000000E+00  0.00000000E+00  0.00000000E+00
  0.00000000E+00  0.00000000E+00  0.00000000E+00
  0.00000000E+00  0.00000000E+00  0.00000000E+00
  0.00000000E+00  0.00000000E+00  0.00000000E+00
  0.00000000E+00  0.00000000E+00  0.00000000E+00
  0.00000000E+00  0.00000000E+00  0.00000000E+00
  0.00000000E+00  0.00000000E+00  0.00000000E+00
  0.00000000E+00  0.00000000E+00  0.00000000E+00
  0.00000000E+00  0.00000000E+00  0.00000000E+00
  0.00000000E+00  0.00000000E+00  0.00000000E+00
  0.00000000E+00  0.00000000E+00  0.00000000E+00
  0.00000000E+00  0.00000000E+00  0.00000000E+00
  0.00000000E+00  0.00000000E+00  0.00000000E+00
  0.00000000E+00  0.00000000E+00  0.00000000E+00
  0.00000000E+00  0.00000000E+00  0.00000000E+00
  0.00000000E+00  0.00000000E+00  0.00000000E+00
  0.00000000E+00  0.00000000E+00  0.00000000E+00
  0.00000000E+00  0.00000000E+00  0.00000000E+00
  0.00000000E+00  0.00000000E+00  0.00000000E+00
  0.00000000E+00  0.00000000E+00  0.00000000E+00
  0.00000000E+00  0.00000000E+00  0.00000000E+00
  0.00000000E+00  0.00000000E+00  0.00000000E+00
  0.00000000E+00  0.00000000E+00  0.00000000E+00
  0.00000000E+00  0.00000000E+00  0.00000000E+00
  0.00000000E+00  0.00000000E+00  0.00000000E+00
  0.00000000E+00  0.00000000E+00  0.00000000E+00
  0.00000000E+00  0.00000000E+00  0.00000000E+00
  0.00000000E+00  0.00000000E+00  0.00000000E+00
  0.00000000E+00  0.00000000E+00  0.00000000E+00
  0.00000000E+00  0.00000000E+00  0.00000000E+00
  0.00000000E+00  0.00000000E+00  0.00000000E+00
  0.00000000E+00  0.00000000E+00  0.00000000E+00
  0.00000000E+00  0.00000000E+00  0.00000000E+00
  0.00000000E+00  0.00000000E+00  0.00000000E+00
  0.00000000E+00  0.00000000E+00  0.00000000E+00
  0.00000000E+00  0.00000000E+00  0.00000000E+00
  0.00000000E+00  0.00000000E+00  0.00000000E+00
  0.00000000E+00  0.00000000E+00  0.00000000E+00
  0.00000000E+00  0.00000000E+00  0.00000000E+00
  0.00000000E+00  0.00000000E+00  0.00000000E+00
  0.00000000E+00  0.00000000E+00  0.00000000E+00
  0.00000000E+00  0.00000000E+00  0.00000000E+00
  0.00000000E+00  0.00000000E+00  0.00000000E+00
  0.00000000E+00  0.00000000E+00  0.00000000E+00
  0.00000000E+00  0.00000000E+00  0.00000000E+00
  0.00000000E+00  0.00000000E+00  0.00000000E+00
  0.00000000E+00  0.00000000E+00  0.00000000E+00
  0.00000000E+00  0.00000000E+00  0.00000000E+00
  0.00000000E+00  0.00000000E+00  0.00000000E+00
  0.00000000E+00  0.00000000E+00  0.00000000E+00
  0.00000000E+00  0.00000000E+00  0.00000000E+00
  0.00000000E+00  0.00000000E+00  0.00000000E+00
  0.00000000E+00  0.00000000E+00  0.00000000E+00
  0.00000000E+00  0.00000000E+00  0.00000000E+00
  0.00000000E+00  0.00000000E+00  0.00000000E+00
  0.00000000E+00  0.00000000E+00  0.00000000E+00
  0.00000000E+00  0.00000000E+00  0.00000000E+00
  0.00000000E+00  0.00000000E+00  0.00000000E+00
  0.00000000E+00  0.00000000E+00  0.00000000E+00
  0.00000000E+00  0.00000000E+00  0.00000000E+00
  0.00000000E+00  0.00000000E+00  0.00000000E+00
  0.00000000E+00  0.00000000E+00  0.00000000E+00
  0.00000000E+00  0.00000000E+00  0.00000000E+00
  0.00000000E+00  0.00000000E+00  0.00000000E+00
  0.00000000E+00  0.00000000E+00  0.00000000E+00
  0.00000000E+00  0.00000000E+00  0.00000000E+00
  0.00000000E+00  0.00000000E+00  0.00000000E+00
  0.00000000E+00  0.00000000E+00  0.00000000E+00
  0.00000000E+00  0.00000000E+00  0.00000000E+00
  0.00000000E+00  0.00000000E+00  0.00000000E+00
  0.00000000E+00  0.00000000E+00  0.00000000E+00
  0.00000000E+00  0.00000000E+00  0.00000000E+00
  0.00000000E+00  0.00000000E+00  0.00000000E+00
  0.00000000E+00  0.00000000E+00  0.00000000E+00
  0.00000000E+00  0.00000000E+00  0.00000000E+00
  0.00000000E+00  0.00000000E+00  0.00000000E+00
  0.00000000E+00  0.00000000E+00  0.00000000E+00
  0.00000000E+00  0.00000000E+00  0.00000000E+00
  0.00000000E+00  0.00000000E+00  0.00000000E+00
  0.00000000E+00  0.00000000E+00  0.00000000E+00
  0.00000000E+00  0.00000000E+00  0.00000000E+00
  0.00000000E+00  0.00000000E+00  0.00000000E+00
  0.00000000E+00  0.00000000E+00  0.00000000E+00