 O Si  H Mo  S                          
   1.00000000000000     
    21.3948993682999991    0.0000000000000000    0.0000000000000000
     0.0000000000000000   21.3948993682999991    0.0000000000000000
     0.0000000000000000    0.0000000000000000   34.1699981689000012
   O    Si   H    Mo   S 
   236   102    66     1     4
Direct
  0.2818696861150791  0.7115500255490660  0.1007846765062161
  0.6118184387560283  0.6253923802729596  0.2036429414494079
  0.1517752935226210  0.3907099565568845  0.0914888321348750
  0.3798686428597091  0.4414808688866757  0.1408919582184940
  0.6762758714468701  0.8486797519000032  0.1352373632579251
  0.1036112478478284  0.4681519026558618  0.3531463729384151
  0.0039868602353637  0.7609609764532383  0.3000783289593865
  0.6589158671530687  0.1438073792508847  0.1964489516319269
  0.2142991579370205  0.9166460251939588  0.2057604281561873
  0.8450433454477141  0.5326932865030791  0.1029917195347889
  0.4113916451718720  0.7687926072136506  0.2088272429253284
  0.5185212775653413  0.5519578105257456  0.2265202279764311
  0.1143335073254254  0.5138828359461535  0.2159769043762652
  0.6046658981507508  0.5027750398870561  0.3412377901300361
  0.4357762671406182  0.6478134881959564  0.2216787326844933
  0.1251145206664841  0.4186591285815471  0.2811346893893335
  0.5196195660989903  0.7363044116736276  0.2369650101611439
  0.3178966108769761  0.9830958185430583  0.1995526140283180
  0.3229595905438911  0.8573435193375112  0.1917475240540801
  0.8136152276690337  0.8757817158764105  0.2738212213828764
  0.9762957387662115  0.2479660594150262  0.3098500600294075
  0.9875067293516738  0.0426848977324653  0.2917648105917537
  0.0032608340837156  0.0208787193913237  0.1753581492060453
  0.0991972815610521  0.2968480586628206  0.1271405614480393
  0.5927724590978891  0.7334911174318859  0.2995056631824293
  0.4253432977359656  0.5845507226472706  0.3399105488301223
  0.8006083282226547  0.3268736885648836  0.1656963391463626
  0.0645900328960353  0.2041871664847605  0.2630644709989749
  0.5209699381214670  0.6916075188692070  0.0885023185154689
  0.1535498111684271  0.6142460933066646  0.2518399770400973
  0.5527175132085813  0.1779463915391841  0.2316526080313020
  0.7184019812544276  0.4129862315099103  0.1932258130768028
  0.5110857040064540  0.9501263443030186  0.1247603275499902
  0.2532920820317516  0.8641182365656945  0.1086818653539425
  0.6272804728366518  0.7481044300540005  0.1748318189811268
  0.7414239112597218  0.9054001749478885  0.0789705220584080
  0.6935052433535595  0.8508679507022784  0.2800479360937466
  0.7211341624651164  0.6820910407732373  0.2016829238902680
  0.2236396080577068  0.2845190853033041  0.1815754485493393
  0.1122920279861591  0.0616676158792921  0.1025029854211392
  0.5645494763935048  0.1818802853648294  0.3209440007799042
  0.7795586064802346  0.6715164023984571  0.3489910597187127
  0.2074947231925726  0.2856606659780029  0.2580242442715202
  0.6147015271797328  0.5362080763817116  0.1307648206791635
  0.3320890990489073  0.4648064848582923  0.2113375154007361
  0.3167210735301203  0.3354921863837411  0.1405211332077612
  0.3022221531111861  0.9729839699378771  0.1225617590789005
  0.4988267460164675  0.5866732629523722  0.1262958386732122
  0.8701354994191066  0.4646095594031454  0.3027075891057193
  0.5926376784599622  0.0636659279706975  0.2934275179010251
  0.4601580427401164  0.1398793565681668  0.1851809114789299
  0.4795878863575417  0.7924740229433122  0.3033774624232125
  0.5149200100600725  0.4125357787075373  0.3189467603379375
  0.0998853183689165  0.8432465339378163  0.3043943234420413
  0.3097125111662192  0.4143593422293754  0.2787204492857647
  0.7812654051141301  0.1300282418989994  0.3398641314452383
  0.4907105318625514  0.7004430578950930  0.1631665710185538
  0.9885000045597651  0.8958700850969830  0.1682886671060722
  0.8858163972108271  0.7289266595958928  0.3283555702879281
  0.6122634541145388  0.5732403732843838  0.2743556748318176
  0.7924891383274808  0.8217915501003550  0.1266940419886059
  0.8875563936803935  0.3381345372602462  0.3110910788154822
  0.8207826307338795  0.4586899574814190  0.1639707243104155
  0.6379398212997865  0.2638213734868682  0.2271956722456592
  0.8968300968618883  0.8156293999826769  0.1629522848530520
  0.8748143857950333  0.0944751095295275  0.2951523999224244
  0.4441120162224383  0.9123682587186865  0.3164445947904906
  0.1071465318322387  0.0598079466072455  0.3076154201666548
  0.0336235548572544  0.4252851442140073  0.2259327031654715
  0.5712982228171530  0.8412276708483589  0.2645099999933658
  0.0038078545402232  0.1313833194596349  0.2128441168684869
  0.2181505077194287  0.2865954850956258  0.1043279787999780
  0.4378539525470878  0.8689219337398445  0.1652089480507666
  0.4122436998102664  0.0065034568362103  0.1526995449272254
  0.1251759792566124  0.1277020615045085  0.2152525680169810
  0.1007295068004540  0.9395147164686419  0.1774155290299690
  0.3028175620896417  0.9029513057802864  0.2603706006642096
  0.3609627913321658  0.7777382950444849  0.1402764617555964
  0.5904877923607931  0.0436857146171552  0.2162233063762430
  0.3183414542418682  0.0866040785311029  0.1515912813751917
  0.4089895888758510  0.3529843360881282  0.2503056627927724
  0.5163672810465039  0.2082475301702150  0.1315833482652181
  0.6961649785223026  0.3279874609988878  0.0621813368651067
  0.8392092237619131  0.7071993482415033  0.1512581156359762
  0.8362785576169950  0.6698116432268109  0.2263773086162614
  0.6210874880458874  0.2579062846849147  0.1066783568772608
  0.3797572085163770  0.7684667681361218  0.0664298452035058
  0.4213311526176357  0.0360848344465147  0.3046008392273701
  0.3141407276939231  0.5473238738910937  0.3149807259222358
  0.2458203856731200  0.1245677068511204  0.2139910546161602
  0.7401179964252286  0.5481324959035895  0.1446261705821902
  0.6311204156932627  0.0597242258330367  0.1432114520532629
  0.8146140118673720  0.9625109773617836  0.2179051131480030
  0.1668443405950161  0.3641055622157299  0.3463247708805967
  0.2418369003694130  0.6954413345000244  0.3153399611077649
  0.0436206889544473  0.7203852326741563  0.1517050468914119
  0.6668803607752923  0.6479032957010129  0.1361261860331371
  0.7081135452689981  0.0240036989615412  0.2005793131524000
  0.6478945560408681  0.8624545679141036  0.2074688221953707
  0.4116215589711307  0.3535575177790033  0.0886183195741418
  0.5206971071661692  0.2640180535728033  0.0607549895457310
  0.9120088290494039  0.8820952677613138  0.2277946767478026
  0.5291422273895829  0.3363112204773938  0.1234325120634228
  0.4044522933060459  0.1582664973390603  0.1168580243283754
  0.7707976560170784  0.7687604177168497  0.2473111269734702
  0.6338382069815949  0.9805035921041603  0.0837620468437019
  0.2159771378177039  0.4719320999876404  0.3232577928469065
  0.0541228878785164  0.6795900559393998  0.2232967899218836
  0.8870979565668591  0.9711467223568455  0.2809428762205081
  0.1843682845688500  0.0308561184072475  0.1803260471537749
  0.3368229732574100  0.0899142384595213  0.2618398183977099
  0.0421813604170343  0.6168080447672148  0.2895515921220407
  0.9185639680164334  0.1105698416950042  0.1592077269934630
  0.4476882752496118  0.1426923754015377  0.2620356490872836
  0.1816223772080311  0.1389414555672321  0.1456897565384410
  0.1316757322725146  0.9887984036237873  0.2447859269442186
  0.3208680021411967  0.8837263931700077  0.3362281346224049
  0.2956777644545071  0.1362121204280487  0.0805031625595677
  0.8650903520939953  0.2714340847381829  0.1087944865361357
  0.8874184842473413  0.7638978647301272  0.0908290370489128
  0.1158049600301880  0.7187074729767249  0.2866693667601296
  0.4754247880070455  0.8386369713134263  0.0941354885850868
  0.4356236987926947  0.0126832669984100  0.0743647997675596
  0.2190993465270548  0.8405440996227589  0.3048935681576125
  0.8086212466184016  0.0604544162776586  0.1677088166321524
  0.9436124115411015  0.6708780801095374  0.1874245412739345
  0.3207950443883341  0.2890402411445781  0.2891714096997939
  0.9165761458050379  0.0513300375738626  0.2275998400641147
  0.7984257228877109  0.5647673645140946  0.3097975657049946
  0.3563444352289116  0.6607957874025908  0.2938237889342984
  0.4969446934480339  0.2877094236017286  0.3302899532754239
  0.6609579298596185  0.1185726411571275  0.3463578659133391
  0.9199388354063454  0.5808155726281821  0.2938544815739585
  0.9708620591480071  0.5486344509737345  0.1004561055034285
  0.5118518887824306  0.9836673102817938  0.2656213909393996
  0.4020486472942499  0.6676895294082136  0.1122087870466102
  0.3833344558092111  0.1450731766060830  0.3283243178001561
  0.4759513045261782  0.3686156075809834  0.1876132183961010
  0.0216262391754280  0.5052870415044951  0.1647596523167791
  0.0814098640556027  0.4920338926329839  0.0967292713366279
  0.2042760058475595  0.5807951473685410  0.1838459958028071
  0.9813842126533576  0.2562018299746495  0.1338196602472342
  0.1948747980836175  0.4883293659579663  0.1310623675349502
  0.3671036763532425  0.8947289451602526  0.0777335940571000
  0.3067348193421054  0.5380549816770276  0.1500892718560917
  0.7403725345640392  0.4030488040330594  0.1168635101914911
  0.1553138901767299  0.6974079635104758  0.1173230912034586
  0.5613791802821935  0.6217942242821239  0.3361557028256238
  0.6141054295476304  0.2930614250673456  0.3019675573734485
  0.4534528499997826  0.2500308778627985  0.2185386698744640
  0.2604187036693871  0.1791367255160172  0.2821153768510921
  0.6848629655283479  0.5954957908949986  0.3351100643434605
  0.5327047915543411  0.3294116911123779  0.2503868715865455
  0.3979763316788830  0.3652484048777054  0.3263325940748653
  0.2997287828967117  0.2116905928116786  0.1409207278585353
  0.5990939613852825  0.3917631647131198  0.1783303841997178
  0.5371471121914314  0.5111682978549420  0.0699737400239943
  0.2374993621744093  0.3915384773670737  0.2187577025060531
  0.6413613665684901  0.3850699715989239  0.2502159249249680
  0.0398085321424983  0.9620211407030032  0.1114423815034077
  0.8529249053543142  0.5847117825744050  0.1716959666223751
  0.6898105877496653  0.5710416245728512  0.0743362170923215
  0.6305851495687125  0.4986397004964294  0.2150999507726045
  0.0712296197303673  0.1755387439662422  0.1168892552060337
  0.9110920318670309  0.2670213841245118  0.3754574087803849
  0.8357028656261767  0.1153828618088761  0.1013898891061195
  0.5006008169924470  0.0796963291402382  0.1233863856282088
  0.6302534130356023  0.9514873058782259  0.2626475434465914
  0.2288004306299766  0.6007443960965032  0.1074657424542243
  0.0668128622995316  0.2291578449962066  0.1875196124398767
  0.7622415761836013  0.9411971116965959  0.1514598975943807
  0.8217033801449946  0.1925546912480181  0.1621955045631401
  0.2215385592080632  0.2581335514382066  0.3333970749036430
  0.0256165182848508  0.1115593442746292  0.3538751189923660
  0.7249841932380453  0.0617949853255816  0.0935837343268089
  0.3055498606782949  0.4127990691968192  0.0790307334953435
  0.7750374444883732  0.7904689917121236  0.3244374079578604
  0.0730903474930093  0.6043420333486447  0.1290408760973012
  0.8582124061028736  0.2161949177529882  0.3146663188741546
  0.1262644322069755  0.3463439286633901  0.2158830619610534
  0.0414672052290752  0.3276894216159681  0.2711596573150443
  0.6583640116206193  0.1629079710828810  0.2718090181954784
  0.2298123657628588  0.5086408005655705  0.2453769059984297
  0.7389803788837174  0.6573127708548836  0.2760198434049015
  0.7424141211453442  0.2503771885410593  0.1166191266195407
  0.0077966970720916  0.5002175595697452  0.3094617410318834
  0.2148597789751275  0.5875641128473926  0.3555243043233526
  0.3215262344902934  0.7831548214272031  0.2862660455793569
  0.0968340008439343  0.2627753842582049  0.3278242511388776
  0.4076615727088728  0.5543104764680291  0.2648856824400252
  0.7379916316890964  0.0179859835462233  0.3552598498146289
  0.4170830034267931  0.5383722658980182  0.1861297925268768
  0.0493131664095632  0.6933509255029880  0.0759437840926099
  0.9953561965370311  0.5413486775698743  0.2361815364461711
  0.5174819461825197  0.4614233369050809  0.1405799956741159
  0.9892457949309922  0.7855007847421797  0.2080157563220014
  0.1711261247933923  0.9537016253185313  0.3126689369888066
  0.5576834873261818  0.8435058382492925  0.1529510993173183
  0.2207927513713610  0.0580056189730634  0.2789805855915402
  0.3409275373771545  0.7311012377400481  0.3568999675212640
  0.2852723725290268  0.4983311624523140  0.3858045293387391
  0.4790920575416148  0.3665716788428325  0.3876399587713091
  0.1508193037891634  0.2747129616431086  0.3977261588528830
  0.5958453498425573  0.2631955572896554  0.3769019387107856
  0.7282533953658258  0.1047635310064922  0.4108725044356746
  0.9000492614334697  0.1334703261909483  0.3672323776351874
  0.8281911890892399  0.7637430396074694  0.3929141584269285
  0.8804277049519411  0.5411624909689122  0.3649641872121996
  0.8677611187589548  0.4088080841833169  0.3722457937693687
  0.7738985501960172  0.3943236596509790  0.3173840930323287
  0.0079743448336606  0.5370413083299126  0.3820160114536855
  0.9959135520352544  0.4125063603869051  0.3662665000467026
  0.5449424024973653  0.8656939131428574  0.3534570983028080
  0.0927019066538548  0.7600966646186127  0.3594139313488865
  0.1555713446858152  0.8788678625512569  0.3711608845250954
  0.0338629162199202  0.9830442359644224  0.3510813483915640
  0.4318238874200060  0.8229659466837236  0.3724010576626203
  0.5212473928596405  0.9927164294307790  0.3450309385069708
  0.6586547673174052  0.4449082459424871  0.0623514732520341
  0.7758486352687852  0.4208228281700776  0.0421453161609942
  0.6871034934910162  0.2038687760591004  0.0522116191102424
  0.1276697764874558  0.2875084473283974  0.0506189504962486
  0.1795521083407437  0.4954487779353439  0.0520232262818688
  0.4351170902738239  0.8536322517812399  0.0202249223846965
  0.2050339718801414  0.6775917337052737  0.0461684580321604
  0.2664994785304859  0.9499319978425942  0.0495185817326647
  0.9002801654227611  0.5825208335581968  0.0398807088408340
  0.9083323293367064  0.4608554550649319  0.0578235245274204
  0.8220035423439994  0.0090950341133280  0.0576363609428565
  0.7819738595785938  0.1227051822629741  0.0339189988959036
  0.1687849570570959  0.1621831549068720  0.0694179770006410
  0.0270173777522443  0.0292016710435085  0.0460460962520193
  0.1318933418314451  0.9667491219969870  0.0562041795416420
  0.9545182336695055  0.2794924296097199  0.0572982637519434
  0.9452501821260665  0.3689469934373659  0.1140272060993283
  0.6127010896134630  0.1025625304458438  0.0693613804871320
  0.3537633566868259  0.3855990321732520  0.1127746129506649
  0.2172517258095261  0.6720050230063777  0.0932133069230231
  0.3152705719353057  0.7183737393629650  0.3116703966158481
  0.3562008146318771  0.7281141963287355  0.1048717003785037
  0.2929930878725401  0.8535114704963304  0.2964295433917901
  0.4449057018822941  0.5727401571789702  0.2248774473478390
  0.3976798692366176  0.1040688311610257  0.2890238238419789
  0.6279078145038692  0.1876163123995656  0.2304779791725343
  0.9173132868190415  0.0404569269649983  0.2748014902274415
  0.0760665857839870  0.7718329523896331  0.3125439521265931
  0.8162544804758652  0.7387911897511169  0.3484779538472725
  0.8147868295089489  0.5307427874848801  0.1470693442499272
  0.4136098460009019  0.8374117458886161  0.0648038324476385
  0.5309966731685022  0.3913118130360462  0.1572742259858597
  0.4708570825300874  0.3583689328097316  0.3405346048364771
  0.6544592956187857  0.6769834487350148  0.1797057329227789
  0.4645983239921297  0.7139626496165671  0.2075506632517941
  0.7715342071440905  0.3984717646250454  0.1600427210478332
  0.8529633907152028  0.7770747554034935  0.1332617523126533
  0.8570178778431635  0.9231067194851941  0.2490499238555614
  0.8679770821793242  0.5376624896503821  0.3174272202484755
  0.6192631579927527  0.1319051815859038  0.3079066263470687
  0.7744965814840633  0.9969233048128372  0.1838437337753945
  0.5938281882023214  0.5626119040497901  0.2288170683119939
  0.6160130505866575  0.5712947814429458  0.3214361719605271
  0.9612523024137030  0.0778439795783934  0.1930921038786202
  0.3295514107840929  0.1478104330948648  0.1235675553483334
  0.2896505170187988  0.9155238035121502  0.2141677182905423
  0.7436323319437624  0.8802099145996480  0.1245965763494853
  0.7665787580105836  0.6944148366835255  0.2384366401117434
  0.9475318410816702  0.8452620071890108  0.1926889892915082
  0.7274679398314062  0.0924574073526581  0.3635300470677167
  0.1608129503160027  0.8803221655767950  0.3233150644236303
  0.0763928685936044  0.0057692603095781  0.0795438136644567
  0.4671734668195553  0.3239228142942306  0.2259522964328161
  0.0457911236714848  0.2602572808083440  0.2928284275275769
  0.4778262486426590  0.1777697058133305  0.2246491733317001
  0.1993838248609498  0.3263804996442618  0.2180174773146194
  0.0914341433003470  0.6569230898441440  0.2622982702027934
  0.1336749220389452  0.1340540491096187  0.1082023575368380
  0.0411206308658749  0.4964921084538403  0.2101590290203504
  0.3833602934532746  0.8186015548690578  0.1773830080305588
  0.4735784583224552  0.9816103633262533  0.3074439425547004
  0.6358342167404540  0.8765478299564239  0.2539057524103792
  0.2649362941261466  0.2794327946054537  0.1415395197153649
  0.6494782188677048  0.0534474817191872  0.0970038965324763
  0.5823387219867123  0.0104368262436558  0.2588065548898953
  0.1531311686391273  0.4659714285590316  0.0929752469087504
  0.5416364234469253  0.5244314739508981  0.1168383156220618
  0.4649843075735380  0.0123421596833379  0.1185372879028085
  0.8081380099688903  0.2607080985631706  0.1395602255974190
  0.6880445432976111  0.2609473531409993  0.0841155539875245
  0.5671840047572259  0.2562999356632245  0.3327859136720094
  0.4755123413966533  0.8476283129410134  0.3369551135378876
  0.0651851972503265  0.1735735453415458  0.2197797738114444
  0.1582639478283948  0.0156761437795113  0.2862336127469914
  0.8447505993228073  0.1212078244131569  0.1487982560885283
  0.9918649954872160  0.5604582965317729  0.2821589490106294
  0.2958302969346371  0.9191106741848994  0.0891706611055386
  0.8535711354014031  0.1429850848886031  0.3288414308181280
  0.2574762580856856  0.5270218169655643  0.3448007237391938
  0.0326206111826841  0.9555492875360261  0.1588842964020432
  0.1583896118692599  0.9682646788341029  0.2021760758621959
  0.2646425735923720  0.1123610280414202  0.2596275508706779
  0.0372859784745362  0.5375203079097396  0.1228463569308533
  0.7912609799940515  0.0751262496542538  0.0719232138115792
  0.3579526726722821  0.3558909679103457  0.2857966163754221
  0.0807612288210517  0.6788738106311728  0.1191526405062717
  0.1843869760837321  0.1058282399680778  0.1886520839238572
  0.2756767114102891  0.4468726955327768  0.2402841321672795
  0.1494545580949459  0.3154139609376204  0.0931311112830490
  0.5403704190465716  0.7743889966546551  0.2765107335017818
  0.2528870569542802  0.2529030197727372  0.2902917715199877
  0.7189656538836658  0.3993617341114966  0.0709413899090061
  0.8684667038591627  0.6576118381564275  0.1835768952103929
  0.4958075189661146  0.8757764276952370  0.1346252345635619
  0.3757587783316937  0.5875936130234574  0.3035405492743161
  0.6479670242930319  0.4246702776640112  0.2088746577395361
  0.8488079450040178  0.4000431692929560  0.3250987758676937
  0.7631366750860268  0.8213727096603156  0.2815097560777426
  0.6273247980018891  0.8241744897654956  0.1682756286928486
  0.6078429797678999  0.3171731382599728  0.2567299685138180
  0.4718316827456523  0.1470099290997340  0.1382271435371207
  0.5460858717434945  0.2658388498920031  0.1056671792192258
  0.4778516521324623  0.6602125862726537  0.1227624174426085
  0.0287822291432440  0.4777994624655748  0.3530919686365893
  0.9093472762689212  0.2694028904143816  0.3270729185877751
  0.0381168299064269  0.0496047482394438  0.3273057135089985
  0.3367079997324152  0.0126543287460004  0.1569311066890991
  0.3590038055048568  0.4953631469713465  0.1717164273644322
  0.1577736125552417  0.2892301908117898  0.3510814090682153
  0.1529695588357122  0.4304203045744278  0.3253275979224133
  0.6783026932493426  0.5757901462234419  0.1220449353738570
  0.2331276603956581  0.5516279936863409  0.1433619642204930
  0.1766478183035512  0.5541509654159890  0.2251839397532003
  0.0063291433343729  0.7144562061330945  0.1934364822502899
  0.7502697337476745  0.6223124862805411  0.3176309993769323
  0.9373115515910719  0.2950225566317898  0.1031383655025647
  0.6486550991591140  0.0679405383479904  0.1886994131455908
  0.0825525988153683  0.3800561714229637  0.2489144450057310
  0.9076185600872838  0.5330497487767418  0.0761195656374733
  0.0543906328111568  0.2398962146295630  0.1410996228057334
  0.7302398618909149  0.5839932390528918  0.0642338577323706
  0.5665517928710166  0.4796592905835486  0.0603815160688240
  0.3239121604565954  0.4109373847518281  0.0530545958551433
  0.4532699453545648  0.3536355250036536  0.1006687616425709
  0.4682275978791570  0.5979878980870000  0.3346163153136475
  0.5555542635636992  0.6294749878172893  0.3643648404777463
  0.5714027525775497  0.4738033563741057  0.3325863480859675
  0.2075831809976300  0.7154881232850886  0.3011244074419546
  0.3086382466391599  0.7391728056123683  0.3762292587169213
  0.2221456394600872  0.6259321584944002  0.3400545924099622
  0.2946752324791855  0.4539954830054432  0.3859940938258918
  0.5208154890384157  0.4049095495026535  0.2909892422701885
  0.4683666563182894  0.4066113210194935  0.3998898302862511
  0.1367605720506823  0.2331540916715367  0.4048473607160588
  0.5792208378396817  0.6951708992656517  0.3130215170930397
  0.5748211824942649  0.2927584451187634  0.3940533569491324
  0.3825423311602628  0.1902098156666841  0.3256060073358518
  0.7050997999327303  0.1406472874311792  0.4203947752322930
  0.9024089687268652  0.1709605181637051  0.3836796836735412
  0.8949465275182308  0.6888682535323075  0.3160807074270454
  0.7971775385990281  0.7912804907889848  0.4042449788641463
  0.9237899955468655  0.5471189011865678  0.3741467593322307
  0.7515374157127739  0.3558841708593100  0.3228480948159324
  0.8602043199558215  0.4516317764051621  0.3815081641353415
  0.0254122614160854  0.5377847441062895  0.4082347671998517
  0.9499855096885522  0.4119608409745156  0.3702526797328004
  0.9667857098017898  0.7653221101645481  0.3164759403246671
  0.0937460141111183  0.7171743134857125  0.3685607454643810
  0.1371083348250324  0.8399643572978347  0.3807438194980174
  0.9814367628032795  0.1188200934323020  0.3608685382926465
  0.0662726445727000  0.9726242211290402  0.3698827961484286
  0.5505649954646104  0.9109132963584968  0.3568255224105092
  0.3992071392783943  0.7917643840632783  0.3666594726008240
  0.3622139925165493  0.9031097550146376  0.3345681354755141
  0.7194162872756800  0.9882825099176402  0.3732150450412370
  0.5515769613279049  0.0261026423370458  0.3408605093055607
  0.9367216321260852  0.2976148476875077  0.3889854966970383
  0.8186033207259352  0.4257592964344230  0.0514834306271741
  0.6702201795067624  0.4895036975395297  0.0608778292682408
  0.7259528133880035  0.1832186079242651  0.0433463936086831
  0.3113626963431164  0.1010273476398458  0.0653560364197056
  0.1394918983000615  0.2432374234427054  0.0480177244230243
  0.2235388536118301  0.4873734045654894  0.0471517041745994
  0.2528796600933985  0.8218793287834458  0.0984431685526888
  0.4778560021274983  0.2769319311531308  0.0557689515323431
  0.4560043466089299  0.8218477903553507  0.0048372515938974
  0.1629703699785546  0.6694653811136089  0.0368058297982463
  0.4149045401520709  0.9743154111915845  0.0658735636769450
  0.0142654313451096  0.7222428781610972  0.0766055324132679
  0.8798987597054417  0.7954451369708687  0.0709640089466071
  0.7022447700334069  0.9291871778780660  0.0745209670396684
  0.5232963393994648  0.7370329032905347  0.0888927034904789
  0.2218239057283087  0.9605613351087603  0.0512320881066125
  0.9255594335194841  0.6200995250194730  0.0411932190308816
  0.9333071804971947  0.4541003954940315  0.0344478251575084
  0.5954168625750995  0.9628609020081444  0.0946749351973664
  0.7982873826050370  0.9710167143160934  0.0644889711625352
  0.7795595649623551  0.1030771674013154  0.0083709040344470
  0.2146992433498847  0.1562662116300382  0.0695176692699752
  0.9843795479004022  0.0381961947217205  0.0539533430837990
  0.9982262538693594  0.2828126506643798  0.0497475614112379
  0.9318891395735882  0.3993846963336798  0.0943111031622120
  0.1169394700158420  0.9373715759103866  0.0366910635657832
  0.6352270412007673  0.1411638193299324  0.0617950593740925
  0.5300807512485517  0.6866456119957804  0.4433861181292605
  0.5997104143972172  0.5062889735097897  0.3993287753844434
  0.5084562999405791  0.5576316354170983  0.4488941457927244
  0.4363801858349682  0.5003710064327305  0.4252420176546943
  0.5007580378091393  0.5656615711727062  0.5104934982355183
  0.4920698490694474  0.6544131368528009  0.4188829306491391
  0.6071335188143431  0.5185813515123464  0.4385041162173166
 
  0.00000000E+00  0.00000000E+00  0.00000000E+00
  0.00000000E+00  0.00000000E+00  0.00000000E+00
  0.00000000E+00  0.00000000E+00  0.00000000E+00
  0.00000000E+00  0.00000000E+00  0.00000000E+00
  0.00000000E+00  0.00000000E+00  0.00000000E+00
  0.00000000E+00  0.00000000E+00  0.00000000E+00
  0.00000000E+00  0.00000000E+00  0.00000000E+00
  0.00000000E+00  0.00000000E+00  0.00000000E+00
  0.00000000E+00  0.00000000E+00  0.00000000E+00
  0.00000000E+00  0.00000000E+00  0.00000000E+00
  0.00000000E+00  0.00000000E+00  0.00000000E+00
  0.00000000E+00  0.00000000E+00  0.00000000E+00
  0.00000000E+00  0.00000000E+00  0.00000000E+00
  0.00000000E+00  0.00000000E+00  0.00000000E+00
  0.00000000E+00  0.00000000E+00  0.00000000E+00
  0.00000000E+00  0.00000000E+00  0.00000000E+00
  0.00000000E+00  0.00000000E+00  0.00000000E+00
  0.00000000E+00  0.00000000E+00  0.00000000E+00
  0.00000000E+00  0.00000000E+00  0.00000000E+00
  0.00000000E+00  0.00000000E+00  0.00000000E+00
  0.00000000E+00  0.00000000E+00  0.00000000E+00
  0.00000000E+00  0.00000000E+00  0.00000000E+00
  0.00000000E+00  0.00000000E+00  0.00000000E+00
  0.00000000E+00  0.00000000E+00  0.00000000E+00
  0.00000000E+00  0.00000000E+00  0.00000000E+00
  0.00000000E+00  0.00000000E+00  0.00000000E+00
  0.00000000E+00  0.00000000E+00  0.00000000E+00
  0.00000000E+00  0.00000000E+00  0.00000000E+00
  0.00000000E+00  0.00000000E+00  0.00000000E+00
  0.00000000E+00  0.00000000E+00  0.00000000E+00
  0.00000000E+00  0.00000000E+00  0.00000000E+00
  0.00000000E+00  0.00000000E+00  0.00000000E+00
  0.00000000E+00  0.00000000E+00  0.00000000E+00
  0.00000000E+00  0.00000000E+00  0.00000000E+00
  0.00000000E+00  0.00000000E+00  0.00000000E+00
  0.00000000E+00  0.00000000E+00  0.00000000E+00
  0.00000000E+00  0.00000000E+00  0.00000000E+00
  0.00000000E+00  0.00000000E+00  0.00000000E+00
  0.00000000E+00  0.00000000E+00  0.00000000E+00
  0.00000000E+00  0.00000000E+00  0.00000000E+00
  0.00000000E+00  0.00000000E+00  0.00000000E+00
  0.00000000E+00  0.00000000E+00  0.00000000E+00
  0.00000000E+00  0.00000000E+00  0.00000000E+00
  0.00000000E+00  0.00000000E+00  0.00000000E+00
  0.00000000E+00  0.00000000E+00  0.00000000E+00
  0.00000000E+00  0.00000000E+00  0.00000000E+00
  0.00000000E+00  0.00000000E+00  0.00000000E+00
  0.00000000E+00  0.00000000E+00  0.00000000E+00
  0.00000000E+00  0.00000000E+00  0.00000000E+00
  0.00000000E+00  0.00000000E+00  0.00000000E+00
  0.00000000E+00  0.00000000E+00  0.00000000E+00
  0.00000000E+00  0.00000000E+00  0.00000000E+00
  0.00000000E+00  0.00000000E+00  0.00000000E+00
  0.00000000E+00  0.00000000E+00  0.00000000E+00
  0.00000000E+00  0.00000000E+00  0.00000000E+00
  0.00000000E+00  0.00000000E+00  0.00000000E+00
  0.00000000E+00  0.00000000E+00  0.00000000E+00
  0.00000000E+00  0.00000000E+00  0.00000000E+00
  0.00000000E+00  0.00000000E+00  0.00000000E+00
  0.00000000E+00  0.00000000E+00  0.00000000E+00
  0.00000000E+00  0.00000000E+00  0.00000000E+00
  0.00000000E+00  0.00000000E+00  0.00000000E+00
  0.00000000E+00  0.00000000E+00  0.00000000E+00
  0.00000000E+00  0.00000000E+00  0.00000000E+00
  0.00000000E+00  0.00000000E+00  0.00000000E+00
  0.00000000E+00  0.00000000E+00  0.00000000E+00
  0.00000000E+00  0.00000000E+00  0.00000000E+00
  0.00000000E+00  0.00000000E+00  0.00000000E+00
  0.00000000E+00  0.00000000E+00  0.00000000E+00
  0.00000000E+00  0.00000000E+00  0.00000000E+00
  0.00000000E+00  0.00000000E+00  0.00000000E+00
  0.00000000E+00  0.00000000E+00  0.00000000E+00
  0.00000000E+00  0.00000000E+00  0.00000000E+00
  0.00000000E+00  0.00000000E+00  0.00000000E+00
  0.00000000E+00  0.00000000E+00  0.00000000E+00
  0.00000000E+00  0.00000000E+00  0.00000000E+00
  0.00000000E+00  0.00000000E+00  0.00000000E+00
  0.00000000E+00  0.00000000E+00  0.00000000E+00
  0.00000000E+00  0.00000000E+00  0.00000000E+00
  0.00000000E+00  0.00000000E+00  0.00000000E+00
  0.00000000E+00  0.00000000E+00  0.00000000E+00
  0.00000000E+00  0.00000000E+00  0.00000000E+00
  0.00000000E+00  0.00000000E+00  0.00000000E+00
  0.00000000E+00  0.00000000E+00  0.00000000E+00
  0.00000000E+00  0.00000000E+00  0.00000000E+00
  0.00000000E+00  0.00000000E+00  0.00000000E+00
  0.00000000E+00  0.00000000E+00  0.00000000E+00
  0.00000000E+00  0.00000000E+00  0.00000000E+00
  0.00000000E+00  0.00000000E+00  0.00000000E+00
  0.00000000E+00  0.00000000E+00  0.00000000E+00
  0.00000000E+00  0.00000000E+00  0.00000000E+00
  0.00000000E+00  0.00000000E+00  0.00000000E+00
  0.00000000E+00  0.00000000E+00  0.00000000E+00
  0.00000000E+00  0.00000000E+00  0.00000000E+00
  0.00000000E+00  0.00000000E+00  0.00000000E+00
  0.00000000E+00  0.00000000E+00  0.00000000E+00