 O Si  H Mo  S 
1.0
       21.3948993683         0.0000000000         0.0000000000
        0.0000000000        21.3948993683         0.0000000000
        0.0000000000         0.0000000000        34.1699981689
    O   Si    H   Mo    S
  236  102   68    3    8
Cartesian
6.07340094 15.22487576 3.43406835 F F F
13.10407006 13.37214749 6.91603254 F F F
3.21782247 8.36852557 3.13587852 F F F
8.14828095 9.42177754 4.80541974 F F F
14.46640912 18.16129140 4.60580828 F F F
2.21735313 9.98249790 12.01077691 T T T
0.08771009 16.22624414 10.32068013 T T T
14.08063384 3.06530081 6.71727496 F F F
4.58828892 19.62106354 7.02634072 F F F
18.08889629 11.37435993 3.51059700 F F F
8.83439647 16.47154586 7.14042849 T T T
11.08628170 11.84129629 7.71429357 T T T
2.47679419 10.98725457 7.29629846 T T T
13.07193413 10.62718995 11.50392406 T T T
9.29826844 13.86620556 7.52560335 T T T
2.66573497 8.92142109 9.54717254 T T T
11.13348327 15.70123228 8.10463499 T T T
6.80419625 21.03416844 6.81377845 F F F
6.91827753 18.34211595 6.56139379 F F F
17.44434004 18.72075884 9.35613300 T T T
20.85217705 5.30232764 10.51925340 T T T
21.12710249 0.91449544 9.96620534 T T T
0.06179422 0.44558920 5.96142496 F F F
2.07996086 6.34126987 4.27239643 F F F
12.64709074 15.63170645 10.28326104 T T T
9.14129526 12.48037157 11.58332036 T T T
17.12907380 6.99761757 5.65363162 F F F
1.37166676 4.37889112 8.93969087 T T T
11.21512893 14.73688271 3.01505643 F F F
3.28921269 13.14629055 8.53986457 T T T
11.80883644 3.78316268 7.92523921 T T T
15.36037717 8.83655290 6.58653368 F F F
10.94077097 20.33906951 4.26289094 F F F
5.43520429 18.48013850 3.70142117 F F F
13.42836242 16.00877825 5.96476208 F F F
15.85956168 19.37170274 2.68400816 F F F
14.86591103 18.20891379 9.55637533 T T T
15.43591446 14.60482826 6.88996799 F F F
4.79470106 6.07477883 6.19491219 F F F
2.43814069 1.30819025 3.47141031 F F F
12.09070682 3.89994013 10.99230025 T T T
16.67514739 14.36425766 11.91851585 T T T
4.37684819 6.06557673 8.80279369 T T T
13.17429982 11.48295259 4.45005746 F F F
7.05924906 9.94829162 7.17064585 T T T
6.75378492 7.17387423 4.74817346 F F F
6.47737191 20.80399865 4.18666830 F F F
10.68942718 12.55356243 4.35763957 F F F
18.61719187 9.93474416 10.33887186 T T T
12.67197313 1.35652398 10.03151895 T T T
9.83828918 2.98663282 6.32678485 F F F
10.25584970 16.94997592 10.34336989 T T T
10.97084485 8.81629259 10.86524130 T T T
2.12984520 18.02450328 10.41085156 T T T
6.66001814 8.90410020 9.51603460 T T T
16.71219426 2.76770742 11.61478011 T T T
10.51683619 15.02407592 5.55541731 F F F
21.17009578 19.16592055 5.73226723 F F F
18.95067613 15.69682890 11.46496318 T T T
13.09798209 12.30664370 9.33586080 T T T
16.94565415 17.56428741 4.30176042 F F F
18.95580895 7.22948725 10.63101883 T T T
17.56507295 9.81566077 5.60936161 F F F
13.61950617 5.62875633 7.77167478 T T T
19.20921735 17.47134570 5.51928846 F F F
18.71892377 2.02342107 10.08259915 T T T
9.49597711 19.51667532 10.81003070 T T T
2.28977327 1.27949259 10.51328895 T T T
0.73569182 9.10267284 7.61426405 T T T
12.26556199 17.93030164 9.03742147 T T T
0.07965415 2.80599413 7.24603701 T T T
4.64188387 6.13006156 3.55398233 F F F
9.36968991 18.60989753 5.63750562 F F F
8.82097462 0.14993273 5.21588062 F F F
2.67529844 2.73677340 7.32621541 T T T
2.16411301 20.11176901 6.05329193 F F F
6.46857470 19.32542827 8.89959862 T T T
7.74885873 16.64220041 4.79823430 F F F
12.63157495 0.91908979 7.39201936 T T T
6.79651742 1.84958513 5.16242156 F F F
8.73512960 7.53549145 8.54287735 T T T
11.04602635 4.45512852 4.50166058 F F F
14.89410138 7.01912569 2.12542934 F F F
17.93539110 15.15156758 5.16974754 F F F
17.91374526 14.32693535 7.71516985 T T T
13.27594629 5.52404611 3.63765824 F F F
8.15300824 16.45682710 2.26523529 F F F
9.00714496 0.76153303 10.39865280 T T T
6.73576329 11.70818084 10.76956267 T T T
5.25591704 2.67272693 7.29595426 T T T
15.85025756 11.73125495 4.91902227 F F F
13.48788275 1.27070510 4.89177084 F F F
17.41231378 20.59080098 7.44500081 T T T
3.59855547 7.77068758 11.76850340 T T T
5.17487679 14.87783958 10.77538455 T T T
0.96449654 15.45299497 5.18725799 F F F
14.30869821 13.88062847 4.62845272 F F F
15.14005220 0.49849589 6.84654422 F F F
13.87143785 18.45591413 7.08061394 F F F
8.79551965 7.56918700 2.99622214 F F F
11.11175325 5.62095954 2.07437511 F F F
19.51348723 18.89510774 7.74810059 T T T
11.29615356 7.19477916 4.19600449 F F F
8.65316767 3.38528542 3.99336880 F F F
16.52428577 16.43981418 8.45476553 T T T
13.55791613 20.97363046 2.85707136 F F F
4.61236345 10.09009142 10.99275748 T T T
1.13867879 14.54123355 7.62345207 T T T
18.97817658 20.78365482 9.58374641 T T T
3.95205199 0.66712189 6.14832799 F F F
7.19825609 1.88331543 8.91498174 T T T
0.93722755 13.14895835 9.87166623 T T T
19.64117400 2.36298900 5.42852538 F F F
9.54138378 3.06613226 8.95581739 T T T
3.87718961 2.98252018 4.95700502 F F F
2.81383428 21.16662203 8.35455322 T T T
6.85713956 18.90265841 11.49055624 T T T
6.33911982 2.92876805 2.73114151 F F F
18.48710639 5.80945527 3.70018464 F F F
19.07432167 16.40435371 3.11453680 F F F
2.46797084 15.35824880 9.78051516 T T T
10.18713173 17.96257020 3.20886307 F F F
9.31849368 0.27500859 2.54029596 F F F
4.68145761 17.98093358 10.41372023 T T T
17.29064740 1.29069330 5.72628241 F F F
20.20015940 14.35731783 6.35119408 F F F
6.79766067 6.21274463 9.86768959 T T T
19.61259470 1.09799886 7.76582387 T T T
17.11645535 12.09273062 10.57717586 T T T
7.63212369 14.13538224 10.05159766 T T T
10.66662788 6.16662957 11.39984305 T T T
14.14540432 2.51308563 11.84084462 T T T
19.70552493 12.39831782 9.97413214 T T T
20.79528242 11.79866644 3.37459164 F F F
10.94714715 21.04098457 9.07700251 T T T
8.64532370 14.30159515 3.81662020 F F F
8.13833220 3.04547823 11.22083934 T T T
10.19441906 7.88080160 6.40936095 F F F
0.47775199 10.85481883 5.56135732 F F F
1.77196650 10.60227887 3.23883883 F F F
4.42505400 12.41912201 6.24428972 F F F
20.97873523 5.43964211 4.51047996 F F F
4.17661616 10.46906651 4.42398171 F F F
7.86453852 19.15471124 2.62561777 F F F
6.58990697 11.50691682 5.04729254 F F F
15.86890406 8.63771947 3.97776902 F F F
3.37355198 14.96541892 4.03272021 F F F
12.03321921 13.15804312 11.52872484 T T T
13.13503915 6.28311084 10.32969045 T T T
9.70541475 5.34614950 7.45335633 T T T
5.61550026 3.82552792 9.61189551 T T T
14.68069202 12.70310800 11.41513147 T T T
11.37623707 7.04344890 8.58184535 T T T
8.49653179 7.76031099 11.14692682 T T T
6.40773896 4.52734605 4.80408979 F F F
12.82250319 8.34972095 6.06759713 F F F
11.47909118 10.98731834 2.39023031 F F F
5.08561031 8.33599751 7.52109360 T T T
13.70400965 8.22532557 8.52949120 T T T
0.87595400 20.57990026 3.78904061 F F F
18.26363414 12.51777677 5.83617664 F F F
14.77696464 12.22380696 2.51811207 F F F
13.46252087 10.65343749 7.32724648 T T T
1.52748889 3.74242720 3.92447010 F F F
19.52111441 5.70684792 12.81339697 T T T
17.86320130 2.47684647 3.46116372 F F F
10.71341308 1.70965116 4.21025802 F F F
13.46683372 20.33421724 8.98321800 T T T
4.90012987 12.87422291 3.62582099 F F F
1.42628621 4.88853225 6.34343378 F F F
16.31378012 20.12657322 5.16674240 F F F
17.57454285 4.12258635 5.54152148 F F F
4.68622508 5.45432836 11.36924280 T T T
0.54363232 2.38727123 12.09341564 T T T
15.50393934 1.31933979 3.20284134 F F F
6.52622299 8.86397619 2.68939724 F F F
16.57250242 16.92327887 11.09615416 T T T
1.58098214 12.99255328 4.36286826 F F F
18.33803392 4.62150178 10.76343223 T T T
2.69672527 7.39614648 7.31505944 T T T
0.83651073 7.01403687 9.16869433 T T T
14.07189337 3.47899482 9.29567587 T T T
4.90690233 10.87716223 8.36694445 T T T
15.83584996 14.05502456 9.41587932 T T T
15.87161138 5.35756222 3.98864495 F F F
0.16564998 10.65600517 10.51487451 T T T
4.58436629 12.55821831 12.10807675 T T T
6.87716840 16.75595523 9.78288383 T T T
2.02394631 5.67419233 11.13344087 T T T
8.70578006 11.86909259 9.02014728 T T T
15.80654760 0.36904698 12.16809497 T T T
8.91369826 11.50852361 6.34177082 F F F
1.14906909 14.96371521 2.58224873 F F F
21.32446047 11.58087027 8.01289634 T T T
11.09427998 9.87013053 4.79086810 F F F
21.14168991 16.80753468 7.10583734 T T T
3.64932801 20.40097454 10.67827209 T T T
11.93234044 18.05499415 5.23279330 F F F
4.71657855 1.24431881 9.52779445 T T T
7.28683904 15.63499273 12.20258633 T T T
6.06047324 10.61865353 13.15618421 T T T
10.16551777 7.95730425 13.25545862 T T T
3.14582364 5.88416685 13.53629891 T T T
12.85016432 5.60054302 12.89353056 T T T
15.59098436 2.23766763 14.05044720 T T T
19.25561551 2.85500525 12.54830641 T T T
17.44673876 16.34339109 13.54239065 T T T
18.89437448 11.61505550 12.43379654 T T T
18.58052630 8.75287068 12.72014912 T T T
16.54242345 8.45917440 10.87144710 T T T
0.20392257 11.49821461 12.98141885 T T T
21.30601546 8.82523710 12.50292894 T T T
11.66220605 18.51383022 12.04559821 T T T
2.04656436 16.22507857 12.28005491 T T T
3.32913585 18.80300769 12.68165363 T T T
0.72255498 21.03255654 11.99672579 T T T
9.24258019 17.59493641 12.71080682 T T T
11.14338292 21.23760164 11.79181027 T T T
14.09335048 9.52029712 2.13112049 F F F
16.59438546 9.00660490 1.41959983 F F F
14.69623841 4.36291689 1.78456956 F F F
2.76054825 6.18586777 1.67237095 F F F
3.87320355 10.52223043 1.70239304 F F F
9.33898161 18.25997549 0.67456574 F F F
4.37298933 14.57431826 1.57709571 F F F
5.70138991 20.32517582 1.68986574 F F F
19.17631117 12.55132566 1.42084959 F F F
19.47557448 9.88527586 1.96874928 F F F
17.58735641 0.19879308 1.97134568 F F F
16.70774879 2.61762162 1.15672774 F F F
3.64053908 3.46309741 2.34202846 F F F
0.58926076 0.62565271 1.56399890 F F F
2.84229849 20.68031102 1.88851882 F F F
20.36921863 5.97788453 1.91099955 F F F
20.23107365 7.87488833 3.87220022 F F F
13.10808450 2.19288232 2.36859836 F F F
7.56070668 8.25142071 3.82700478 F F F
4.67389483 14.41385029 3.17492977 F F F
6.74771735 15.36753124 10.65203137 T T T
7.65761118 15.59127256 3.57855246 F F F
6.26306223 18.26141013 10.12705298 T T T
9.50638686 12.26208698 7.65584666 T T T
8.48229697 2.20625109 9.86403373 T T T
13.41588934 3.99777842 7.88352371 T T T
19.62712091 0.87116916 9.38023112 T T T
1.64315991 16.48744422 10.69140365 T T T
17.39284094 15.83476983 11.99469826 T T T
17.44287735 11.35217721 5.01698811 F F F
8.87123037 17.93192629 2.20012306 F F F
11.36124413 8.36366438 5.35802839 F F F
10.05354126 7.67537330 11.64963196 T T T
14.01954751 14.48944624 6.12238869 F F F
9.95129097 15.27833618 7.07817093 F F F
16.50942418 8.52972999 5.46422245 F F F
18.26108749 16.63773199 4.53079646 F F F
18.33816145 19.75391246 8.49659712 T T T
18.60149245 11.50580991 10.81827522 T T T
13.24513022 2.81495776 10.53558969 T T T
16.56285654 21.32254761 6.27228505 F F F
12.70119515 12.04223895 7.78911751 T T T
13.23042293 12.13291073 10.93628718 T T T
20.56135197 1.66069233 6.57884212 F F F
7.05020573 3.16230860 4.21159790 F F F
6.19910025 19.59075374 7.31728147 T T T
15.91275175 18.82779699 4.23949904 F F F
16.42416322 14.85290108 8.13673680 T T T
20.27696810 18.09640360 6.55893805 F F F
15.56925435 1.96374707 12.43474461 T T T
3.43437306 18.83018551 11.04614526 T T T
1.65641774 0.11657344 2.69459004 F F F
9.98946004 6.92598378 7.71747742 T T T
0.94026802 5.58577516 9.93616822 T T T
10.20876992 3.79701557 7.67745900 T T T
4.25328076 6.95626552 7.44049717 T T T
1.95883518 14.03941440 8.93570914 T T T
2.87580338 2.86332776 3.65778634 F F F
0.90416244 10.63467495 7.10591371 T T T
8.21668903 17.52533279 6.06410217 F F F
10.12814317 20.99722997 10.50416152 T T T
13.61617781 18.73483489 8.67272045 T T T
5.65436369 5.97138784 4.81417395 F F F
13.88910751 1.13891128 3.31397489 F F F
12.45735229 0.21350311 8.84884021 T T T
3.28374098 9.97913064 3.12920556 F F F
11.60388572 11.23172867 3.99709467 F F F
9.94961149 0.27005980 4.04831693 F F F
17.28131905 5.57872821 4.76465946 F F F
14.71323347 5.58449036 2.87327400 F F F
12.16797333 5.48949361 11.41186157 T T T
10.17177981 18.12653103 11.49595245 T T T
1.38923664 3.71553887 7.46504235 T T T
3.37996354 0.33618484 9.77671368 T T T
18.06180901 2.59342546 5.07997837 F F F
21.24120162 11.96035353 9.59048888 T T T
6.33842227 19.66273440 3.03608348 F F F
18.25660887 3.05287747 11.23869908 T T T
5.49778647 11.26089713 11.75065792 T T T
0.71021190 20.44708833 5.40890645 F F F
3.39401122 20.72701652 6.90103995 F F F
5.66292690 2.39163206 8.84990744 T T T
0.82331627 11.56194577 4.14130967 F F F
16.91888058 1.60544307 2.45707551 F F F
7.64208391 7.61339622 9.75519503 T T T
1.77269131 14.59272373 4.06517793 F F F
3.94552342 2.27211285 6.42313101 F F F
5.89293154 9.55842602 8.20250612 T T T
3.18320302 6.75603125 3.14814729 F F F
11.56662844 16.52230406 9.45719460 T T T
5.37469437 5.39155936 9.89926237 T T T
15.38607571 8.54648786 2.41688549 F F F
18.58838431 14.07850292 6.24575054 F F F
10.61451029 18.74879489 4.59793189 F F F
8.05553371 12.56537748 10.36611157 T T T
13.84960837 9.07257473 7.11957685 T T T
18.14861811 8.56555071 11.11439374 T T T
16.35071986 17.56843702 9.61853411 T T T
13.42692905 17.63745659 5.74223785 F F F
12.98948634 6.77804181 8.77917317 T T T
10.09394263 3.14453692 4.72404122 F F F
11.66957946 5.68247052 3.60249045 F F F
10.25859911 14.12844369 4.19406454 F F F
0.61929427 10.20435059 12.01397656 T T T
19.44023516 5.76021843 11.16121114 T T T
0.81125812 1.06206647 11.18444673 T T T
7.20391431 0.27125101 5.35651818 F F F
7.67775862 10.59121429 5.83139143 F F F
3.33846005 6.17873410 11.94526574 T T T
3.27256099 9.18653933 11.05219932 T T T
14.53244335 12.33246849 4.14949513 F F F
5.01265919 11.81145323 4.84084288 F F F
3.79768315 11.85633514 7.64299921 T T T
0.13514307 15.29780137 6.59297879 F F F
16.07276701 13.30798785 10.83756573 T T T
20.03362641 6.29901558 3.48762441 F F F
13.86785571 1.44217628 6.44588390 F F F
1.74922873 8.12367145 8.42803397 T T T
19.42143054 11.42954064 2.59297089 F F F
1.14852145 5.10851385 4.75894094 F F F
15.65409576 12.46683367 2.17713926 F F F
12.09070172 10.30958493 2.03880507 F F F
7.02097925 9.20827763 1.92662797 F F F
9.68135999 7.56968115 3.41947368 F F F
10.06821922 12.74213276 11.40972202 T T T
12.01971574 13.26915183 12.49658363 T T T
12.29131155 10.05851340 11.31053723 T T T
4.44511473 15.29776949 10.27849111 T T T
6.59567932 15.88982812 12.83622827 T T T
4.75571776 13.38523906 11.59316573 T T T
6.11137745 9.65096284 13.18887106 T T T
11.12907350 8.59527709 9.92610494 T T T
9.69254572 8.71462318 13.63891451 T T T
2.81912395 5.00486814 13.78313970 T T T
12.35322422 14.80101558 10.71693866 T T T
12.47343046 6.24231606 13.51640961 T T T
8.05333330 4.00870368 11.14764169 T T T
15.09472396 3.00694062 14.37236346 T T T
19.30882598 3.66094700 13.10496857 T T T
19.21811466 14.82962166 11.11380310 T T T
16.71974237 16.90634884 13.84696246 T T T
19.82879045 11.71654128 12.73746608 T T T
16.04651501 7.66089236 11.10989876 T T T
18.40960523 9.66331605 13.04576300 T T T
0.57971148 11.52376523 13.87589365 T T T
20.32347721 8.81887367 12.64457874 T T T
20.71428712 16.47954542 10.86752647 T T T
2.06086469 15.30460985 12.58811353 T T T
2.95161772 17.96467944 13.01442240 T T T
20.99257281 2.54165394 12.33211985 T T T
1.40967531 20.81911147 12.64942402 T T T
11.77782654 19.47901124 12.17957579 T T T
8.55166978 16.91933074 12.51630593 T T T
7.74355057 19.31414244 11.43798111 T T T
15.44442538 21.13580342 12.81074927 T T T
11.79571045 0.55345654 11.64896392 T T T
20.06910473 6.37024640 13.26378462 T T T
17.51352921 9.08941486 1.72893430 F F F
14.34064923 10.47419168 2.07953214 F F F
15.52584151 3.91641585 1.48279070 F F F
6.69413451 2.19540410 2.19962662 F F F
3.01696939 5.24246012 1.56977024 F F F
4.70961003 10.09787354 1.44913668 F F F
5.41326450 17.58425759 3.33051867 F F F
10.20289236 5.92298437 1.90430495 F F F
9.78030295 17.56775095 0.16058017 F F F
3.44188037 14.54335937 1.30177435 F F F
8.86688054 20.85072455 2.25660634 F F F
0.36457035 15.53837452 2.60238040 F F F
18.53426714 16.18633055 2.33916716 F F F
15.02066467 19.88217563 2.53899044 F F F
11.28710449 15.70667116 2.99053468 F F F
4.74405924 20.54978176 1.74831520 F F F
19.93363138 13.12328276 1.22091862 F F F
20.05068779 9.73250012 1.20058787 F F F
12.73464330 20.59635208 3.22775236 F F F
17.08982843 20.77120980 2.19855786 F F F
16.65684522 2.19457440 0.28559885 F F F
4.62348509 3.34107684 2.35428781 F F F
21.06339683 0.76611295 1.83808119 F F F
21.30058423 6.03784801 1.63799772 F F F
19.94310383 8.54104707 3.21521271 F F F
2.51839348 20.04235030 1.23233605 F F F
13.58934813 3.01997926 2.11330607 F F F
12.77028485 14.27814994 18.85883644 T T T
6.98235874 12.64118002 16.86351916 T T T
11.35199485 8.41966634 14.32822124 T T T
11.58466664 8.41764764 18.22610591 T T T
12.17851188 13.20709760 16.10869821 T T T
9.57130271 12.76277627 15.68869085 T T T
11.21097167 10.66667252 16.33414458 T T T
13.15834153 11.31540324 15.30939898 T T T
10.91226818 14.02647459 14.35827872 T T T
10.64124942 12.54928656 17.71607581 T T T
13.34120136 14.50077288 17.65521950 T T T
7.51482754 13.72690905 16.25172073 T T T
9.49895160 10.71068280 14.74647603 T T T
11.54439981 8.36271369 15.66507135 T T T
11.28795125 9.72013862 18.48369432 T T T
