 H                                      
   1.00000000000000     
    21.3948993682999991    0.0000000000000000    0.0000000000000000
     0.0000000000000000   21.3948993682999991    0.0000000000000000
     0.0000000000000000    0.0000000000000000   34.1699981689000012
   H 
     2
Direct
  0.5370567034800844  0.5215560044587878  0.3927145808634740
  0.5370566645199146  0.4864844235412132  0.3927145391365294
 
  0.00000000E+00  0.00000000E+00  0.00000000E+00
  0.00000000E+00  0.00000000E+00  0.00000000E+00
