 H 
1.0
       21.3948993683         0.0000000000         0.0000000000
        0.0000000000        21.3948993683         0.0000000000
        0.0000000000         0.0000000000        34.1699981689
    H
    2
Direct
     0.537056684         0.521371782         0.392714560
     0.537056684         0.486668646         0.392714560
