 Mo  C  O                               
   1.00000000000000     
    21.3948993682999991    0.0000000000000000    0.0000000000000000
     0.0000000000000000   21.3948993682999991    0.0000000000000000
     0.0000000000000000    0.0000000000000000   34.1699981689000012
   O    Mo   C 
     3     1     3
Selective
Direct
0.5539687844550445 0.6320438386368116 0.4190460884176165  T  T  T
0.6860185737763858 0.4907590733823580 0.4375570427327168  T  T  T
0.5047178071594239 0.4704249787203004 0.4854153565088535  T  T  T
0.5538678868218213 0.4906377394202278 0.4015235244768401  T  T  T
0.5230409868297439 0.4780241283079219 0.4532932235051846  T  T  T
0.5533537034158684 0.5781655692633271 0.4121239077942827  T  T  T
0.6357718224653298 0.4899643071859445 0.4235367426576643  T  T  T
