 O Si  H Mo  C  O                       
   1.00000000000000     
    21.3948993682999991    0.0000000000000000    0.0000000000000000
     0.0000000000000000   21.3948993682999991    0.0000000000000000
     0.0000000000000000    0.0000000000000000   34.1699981689000012
   O    Si   H    Mo   C 
   238   102    64     1     2
Selective dynamics
Direct
  0.2826097916358705  0.7101163133745914  0.1005492902027569   F   F   F
  0.6119405528968045  0.6268378432827646  0.2016591244788941   F   F   F
  0.1517269141714905  0.3899238168397048  0.0915891017216381   F   F   F
  0.3796285348232686  0.4383996779498176  0.1424671548017997   F   F   F
  0.6774023920884176  0.8502427658179741  0.1358677967984576   F   F   F
  0.1022580600874363  0.4675548089459127  0.3519572363953998   F   F   F
  0.0043063142034896  0.7597425233272546  0.3007640220276855   F   F   F
  0.6602629774238977  0.1456096804827567  0.1986922540130251   F   F   F
  0.2146236821822569  0.9152433323528584  0.2058760491389933   F   F   F
  0.8453409175565625  0.5338110784626338  0.1032821240353101   F   F   F
  0.4113231506516897  0.7682066882237777  0.2082188170706871   F   F   F
  0.5193508498357104  0.5527733960734267  0.2247204928790651   F   F   F
  0.1145790222186989  0.5124346341313384  0.2143868792046746   F   F   F
  0.6127922927739533  0.4961747365014375  0.3332830148670851   F   F   F
  0.4354305702101584  0.6477355429135940  0.2214345951740881   F   F   F
  0.1271958540866507  0.4167339564553600  0.2809491028444455   F   F   F
  0.5193790356434249  0.7363393338948114  0.2370381824824861   F   F   F
  0.3188100568816878  0.9808867348132466  0.2001446760883923   F   F   F
  0.3226507308086894  0.8558144546726041  0.1903091474678789   F   F   F
  0.8121693811091433  0.8755358883520969  0.2741340235011052   F   F   F
  0.9767501791027513  0.2458467817964660  0.3090552212831099   F   F   F
  0.9869451306719554  0.0418856981329583  0.2919899827005210   F   F   F
  0.0038079388292829  0.0212463294624285  0.1771803976278719   F   F   F
  0.0979169342260136  0.2965867464450511  0.1268303572296219   F   F   F
  0.5916993991575836  0.7328615411368204  0.3000298293186461   F   F   F
  0.4320404216189573  0.5703490281455998  0.3389915186660630   F   F   F
  0.8004681655515995  0.3277303890515313  0.1660998363411466   F   F   F
  0.0670426988730668  0.2041095448803887  0.2629852178153982   F   F   F
  0.5214383389928159  0.6905785758473115  0.0880280673886915   F   F   F
  0.1523921344878758  0.6123367168371061  0.2513529139887396   F   F   F
  0.5531403435056674  0.1788501832810354  0.2333747676889431   F   F   F
  0.7187059184182871  0.4134701230984348  0.1940868491420744   F   F   F
  0.5108152113366131  0.9499379483891346  0.1240569123666972   F   F   F
  0.2524352006476178  0.8622848277878532  0.1077355679566807   F   F   F
  0.6289483271176479  0.7496159690649691  0.1747282705157218   F   F   F
  0.7419604501075554  0.9070259172063473  0.0794132232347309   F   F   F
  0.6917091845264238  0.8535635432657074  0.2802933798810656   F   F   F
  0.7225123931383379  0.6812499418559099  0.2004671560151721   F   F   F
  0.2212653486941960  0.2821856940196383  0.1816588003067494   F   F   F
  0.1116693121869261  0.0614041703038311  0.1024259201846718   F   F   F
  0.5644472526478097  0.1876292995131550  0.3236760670526806   F   F   F
  0.7798296688267428  0.6713215373855732  0.3483497766607115   F   F   F
  0.2060638439471774  0.2858868897111790  0.2580014889422344   F   F   F
  0.6152105495970090  0.5369611778317420  0.1304353538175462   F   F   F
  0.3305068628681340  0.4667962438050353  0.2117331672030716   F   F   F
  0.3148446454273213  0.3331983008810795  0.1412035348337497   F   F   F
  0.3039695738938022  0.9693497859498734  0.1232054039691590   F   F   F
  0.4990958197283248  0.5860768626891897  0.1261166817065487   F   F   F
  0.8667962664265332  0.4629305821373961  0.3019008867291006   F   F   F
  0.5909161967284717  0.0678659342263188  0.2942389006666488   F   F   F
  0.4633960584799226  0.1375027911066340  0.1857972122108933   F   F   F
  0.4790832065510529  0.7921174446919892  0.3039319955421362   F   F   F
  0.5118418785439971  0.4173170581141008  0.3111225706447058   F   F   F
  0.1019932251397719  0.8406060836834328  0.3036208428424771   F   F   F
  0.3082732164373567  0.4121222655393737  0.2780365615520921   F   F   F
  0.7802002982094223  0.1332246891092836  0.3410886779264146   F   F   F
  0.4912902713599649  0.7000776348740061  0.1629515865196893   F   F   F
  0.9887340887642466  0.8965325458743152  0.1700402687919151   F   F   F
  0.8844574977452524  0.7336549138129698  0.3299318592314933   F   F   F
  0.6109855950415266  0.5800699526760980  0.2729770362000110   F   F   F
  0.7937933700253339  0.8240335411857416  0.1275739167483323   F   F   F
  0.8889883007294941  0.3368167188590476  0.3103595596668782   F   F   F
  0.8202150377367730  0.4596302310624765  0.1637864857024667   F   F   F
  0.6372626265791013  0.2657550011980305  0.2283998133359830   F   F   F
  0.9020297895953391  0.8138965262814821  0.1593356211604799   F   F   F
  0.8722693957274572  0.0909154569267585  0.2970171697915163   F   F   F
  0.4444803482422515  0.9130340703250326  0.3160493168009566   F   F   F
  0.1076101352752445  0.0548779590923161  0.3085153976053263   F   F   F
  0.0335377178058280  0.4248737452865115  0.2261577083384196   F   F   F
  0.5702547970060436  0.8411790302918121  0.2647494124283867   F   F   F
  0.0032039554206023  0.1325404446982361  0.2135099508128491   F   F   F
  0.2170681637654965  0.2850305452338020  0.1043863670723937   F   F   F
  0.4382895678437393  0.8683910762431566  0.1647854027884250   F   F   F
  0.4127644395085071  0.0059078269067712  0.1529301144578739   F   F   F
  0.1247559449280615  0.1264036453169766  0.2146623893150306   F   F   F
  0.1012234433128540  0.9387675793214072  0.1771187345769292   F   F   F
  0.3037832388978785  0.8980053966494168  0.2598541416327720   F   F   F
  0.3623485010281868  0.7768910402841129  0.1392081747172327   F   F   F
  0.5905248977665067  0.0462660534977246  0.2170640283539811   F   F   F
  0.3177844619694099  0.0841204979275716  0.1519474922446946   F   F   F
  0.4063578090596280  0.3510829726406683  0.2472496483745061   F   F   F
  0.5160187784036765  0.2079946885363952  0.1318054784054752   F   F   F
  0.6959333710046707  0.3278992683857993  0.0624254518488527   F   F   F
  0.8389128127779202  0.7079721095421476  0.1507540820511366   F   F   F
  0.8373052114188653  0.6736507496472655  0.2261924600526726   F   F   F
  0.6209022388050016  0.2561000038743302  0.1061078666397535   F   F   F
  0.3809424477878807  0.7661131099064562  0.0655019518791278   F   F   F
  0.4198205161256752  0.0371019236799128  0.3061892193515732   F   F   F
  0.3169888351170087  0.5428113151730543  0.3150266713391048   F   F   F
  0.2455927758765455  0.1236645694357250  0.2136709140475332   F   F   F
  0.7397571878276068  0.5491001337181700  0.1440128473983435   F   F   F
  0.6313798421497481  0.0644257630236709  0.1439232855166850   F   F   F
  0.8134588912862242  0.9630835068989612  0.2183207949217660   F   F   F
  0.1652484476988718  0.3631610345905472  0.3476922908497500   F   F   F
  0.2469707081194059  0.6895041783320579  0.3132128711675080   F   F   F
  0.0443344974739404  0.7202513608818961  0.1519463649787696   F   F   F
  0.6677729523356248  0.6497493165726169  0.1345439163363693   F   F   F
  0.7077223630631764  0.0251481604267809  0.2009749999130221   F   F   F
  0.6455394401010608  0.8647951347675402  0.2076429563709681   F   F   F
  0.4107624275444124  0.3499028514095883  0.0903463131010938   F   F   F
  0.5193933524281888  0.2624641200462605  0.0607360999474764   F   F   F
  0.9078445748738702  0.8788922668997969  0.2263699122710818   F   F   F
  0.5305208477017516  0.3360234435893830  0.1225875027715233   F   F   F
  0.4038100459894522  0.1575830947236270  0.1185956091515976   F   F   F
  0.7668835768314821  0.7703547785013001  0.2462459152662362   F   F   F
  0.6339938458690071  0.9817903364805929  0.0859536277909214   F   F   F
  0.2165511078721920  0.4695592110904983  0.3253002947323651   F   F   F
  0.0537191462983060  0.6790126744965121  0.2235234615063106   F   F   F
  0.8880511089711618  0.9691386128411921  0.2799878460208163   F   F   F
  0.1851120634333796  0.0296147428873752  0.1802892300532406   F   F   F
  0.3365681050576868  0.0906446360863313  0.2617855319363898   F   F   F
  0.0410631941250230  0.6147562536738107  0.2893297691831052   F   F   F
  0.9187215916976115  0.1104241048341379  0.1594226598394499   F   F   F
  0.4476961176869239  0.1425650881806249  0.2626134576387855   F   F   F
  0.1815203311608187  0.1378314514196646  0.1453798760029059   F   F   F
  0.1313265539790436  0.9879167158972422  0.2443286460249823   F   F   F
  0.3211363335499868  0.8830798637443138  0.3360968823031953   F   F   F
  0.2958517023790819  0.1355600246294628  0.0811245324607128   F   F   F
  0.8645825719296951  0.2720290038702942  0.1088681822946995   F   F   F
  0.8832501505970782  0.7623953326704651  0.0884676945631568   F   F   F
  0.1154423811900358  0.7156206635217828  0.2874097922875407   F   F   F
  0.4751307681032060  0.8381707760528911  0.0936369699095323   F   F   F
  0.4339922466568282  0.0123257427601686  0.0743055155541796   F   F   F
  0.2214563058846792  0.8354740705160637  0.3054685916569326   F   F   F
  0.8081761911419534  0.0620187677963742  0.1682318236855735   F   F   F
  0.9436838448580573  0.6706655554380276  0.1866916049177618   F   F   F
  0.3201646404811598  0.2865900825094911  0.2878000040620918   F   F   F
  0.9152705297167998  0.0536528183449647  0.2284506864745524   F   F   F
  0.7976107390403513  0.5643414068728916  0.3095524813194217   F   F   F
  0.3643149126074618  0.6573547666570718  0.2989568183757072   F   F   F
  0.5041035297857732  0.2984574778831544  0.3401003830838079   F   F   F
  0.6596799014090422  0.1208021770074410  0.3479953468334784   F   F   F
  0.9185486141834502  0.5788007353749407  0.2925428911333654   F   F   F
  0.9711051804420450  0.5485583189992411  0.1000832404781562   F   F   F
  0.5102489223643332  0.9878111863250183  0.2660943341778506   F   F   F
  0.4027413883006830  0.6663770704469130  0.1120750748648121   F   F   F
  0.3819337584445606  0.1461183564890689  0.3285873927478775   F   F   F
  0.4784906942316169  0.3671381906816507  0.1869785821746248   F   F   F
  0.0211075674170047  0.5039191157410343  0.1640630243551087   F   F   F
  0.0819721589696698  0.4920619468321590  0.0964654086395527   F   F   F
  0.2065683477815980  0.5789292258417831  0.1840016854792097   F   F   F
  0.9806155917580952  0.2543798368720260  0.1338455699244179   F   F   F
  0.1954162177603180  0.4876699345015538  0.1305180096002232   F   F   F
  0.3663379014051955  0.8922536405244017  0.0760217546034525   F   F   F
  0.3080397255230451  0.5370952037186640  0.1485931099411459   F   F   F
  0.7392071357335226  0.4029196864990396  0.1174076220276490   F   F   F
  0.1559232436821247  0.6966821256464613  0.1176847904192044   F   F   F
  0.5594173510885767  0.6124417246295550  0.3387606879102378   F   F   F
  0.6142575778270540  0.2989021058204031  0.3030764106122632   F   F   F
  0.4538816333124913  0.2485206747981934  0.2174448487333223   F   F   F
  0.2579938911097415  0.1782230586889497  0.2815977166724224   F   F   F
  0.6843408890382179  0.5960609755691735  0.3337208060742967   F   F   F
  0.5302224191013849  0.3282303664526651  0.2516856827077802   F   F   F
  0.3987329421983503  0.3621732674649110  0.3232381562672870   F   F   F
  0.2978465260899128  0.2093527372629751  0.1420712463031748   F   F   F
  0.6004207831603878  0.3940683435452783  0.1770667787268252   F   F   F
  0.5388383123679645  0.5124208573063740  0.0692079011943960   F   F   F
  0.2375595413679079  0.3902212421612816  0.2174366041874620   F   F   F
  0.6379315814639241  0.3874506559224358  0.2497703877856949   F   F   F
  0.0381943043197310  0.9628341811641263  0.1125555738472102   F   F   F
  0.8511912783475211  0.5861866478308926  0.1720623338392571   F   F   F
  0.6896888357730830  0.5712288742321903  0.0735642003104147   F   F   F
  0.6317133119429812  0.5007010299780603  0.2151377048374457   F   F   F
  0.0711651578104835  0.1751535453555348  0.1169185049734267   F   F   F
  0.9115962570476412  0.2663197099633621  0.3748675542592110   F   F   F
  0.8353530186472469  0.1177350588975941  0.1018622978524562   F   F   F
  0.5002164060741308  0.0794046685160197  0.1225465389063700   F   F   F
  0.6275427198988623  0.9533812231859145  0.2634647325663479   F   F   F
  0.2288914686415140  0.5999992715175182  0.1072413413788098   F   F   F
  0.0668559813942196  0.2290644737409835  0.1874899929129157   F   F   F
  0.7624171427438569  0.9431712281279019  0.1516342951266481   F   F   F
  0.8224606826825962  0.1938845816990025  0.1630244601744977   F   F   F
  0.2215662001978629  0.2582878743179791  0.3331473759099808   F   F   F
  0.0268577840942328  0.1073377986772783  0.3548023281737045   F   F   F
  0.7251138509681638  0.0625408233516751  0.0937730866366948   F   F   F
  0.3058930093035883  0.4116141106347015  0.0800617448984582   F   F   F
  0.7712299847983388  0.7895281532817648  0.3237247867033517   F   F   F
  0.0729591909251610  0.6040926719068338  0.1293378126843905   F   F   F
  0.8591368985848717  0.2146712493107117  0.3140435516448008   F   F   F
  0.1254217815761223  0.3461473579156689  0.2154459583981563   F   F   F
  0.0417192191733733  0.3273215701475465  0.2714910196515561   F   F   F
  0.6578557485551926  0.1669714976574710  0.2741666224009904   F   F   F
  0.2281188427508170  0.5068574088787443  0.2463394260416365   F   F   F
  0.7401932957946826  0.6577088003490132  0.2751886323057988   F   F   F
  0.7423291172568725  0.2507364914151466  0.1170737318278157   F   F   F
  0.0058112106012018  0.4979384760689385  0.3082339742909994   F   F   F
  0.2192227724719231  0.5857405996670906  0.3558252168422626   F   F   F
  0.3258847781835783  0.7797184994859521  0.2878661543116792   F   F   F
  0.0964247939396472  0.2621992889110132  0.3282435968129036   F   F   F
  0.4093882271954570  0.5531970462502258  0.2640742657125656   F   F   F
  0.7377817242128160  0.0204076739872718  0.3541095724624697   F   F   F
  0.4170086284977543  0.5377972310662074  0.1856652758338910   F   F   F
  0.0506825141897949  0.6933534622612996  0.0759735838897129   F   F   F
  0.9953377277378124  0.5407965955648137  0.2351207329168616   F   F   F
  0.5177618375809843  0.4609089252321539  0.1392147810485511   F   F   F
  0.9887246885525798  0.7847047417155153  0.2085162863389556   F   F   F
  0.1746514938058752  0.9496544926264079  0.3106016237777709   F   F   F
  0.5582767755887090  0.8438069704952227  0.1517639971536795   F   F   F
  0.2208349549089590  0.0562964409563094  0.2787014438593474   F   F   F
  0.3415410328469335  0.7291761487624555  0.3593789895680501   F   F   F
  0.2917124169383101  0.4957074027259409  0.3854184361888784   F   F   F
  0.4660993360509806  0.4049779341235009  0.3801520663772706   F   F   F
  0.1519810672672506  0.2718858433909830  0.3979628878478039   F   F   F
  0.6087214445003610  0.2624767837899924  0.3779256891160401   F   F   F
  0.7286431737469385  0.1043464811990518  0.4116421162507180   F   F   F
  0.9001821692242800  0.1331842156115712  0.3676519771170916   F   F   F
  0.8231680150407854  0.7651698408942949  0.3933078802972929   F   F   F
  0.8806300782588536  0.5383539131119193  0.3639746186940442   F   F   F
  0.8666775757870226  0.4073521695847617  0.3713264198550590   F   F   F
  0.7735824885928508  0.3873630849669354  0.3163964076527819   F   F   F
  0.0081614425936749  0.5375845276241691  0.3802334344247029   F   F   F
  0.9944736487489720  0.4124864213585653  0.3663213723126901   F   F   F
  0.5454111992070736  0.8661100083690769  0.3526793803276718   F   F   F
  0.0940099400725032  0.7590562648025383  0.3595527652043984   F   F   F
  0.1563733909784446  0.8776655925706720  0.3703519442853391   F   F   F
  0.0325342503913078  0.9785168659087873  0.3502740141045564   F   F   F
  0.4311545868789182  0.8258486648107137  0.3725138062911455   F   F   F
  0.5208634625222146  0.9934420776731230  0.3455097769069226   F   F   F
  0.6587860824078007  0.4449144480115450  0.0622619492776195   F   F   F
  0.7763779368301229  0.4207869871037815  0.0430281245301387   F   F   F
  0.6878730431737594  0.2038011439549905  0.0521343301775659   F   F   F
  0.1268639306257882  0.2872415175415242  0.0504811560428493   F   F   F
  0.1795672173659923  0.4937034160104190  0.0513634926796271   F   F   F
  0.4368325394150148  0.8507024025823569  0.0193886583843010   F   F   F
  0.2045756090677031  0.6769775970705112  0.0462164617840841   F   F   F
  0.2656258687124193  0.9500331167028477  0.0501136344199367   F   F   F
  0.9001475617635393  0.5787776297308582  0.0388726720692461   F   F   F
  0.9079858156714096  0.4585028475388739  0.0595442103261234   F   F   F
  0.8240881958210480  0.0102184945849757  0.0597339774144601   F   F   F
  0.7823020810374288  0.1224650049214588  0.0340356693170634   F   F   F
  0.1683200100998548  0.1616755559363483  0.0692140668838803   F   F   F
  0.0249392610265033  0.0290486061290167  0.0469206913563980   F   F   F
  0.1300863945793864  0.9660581567517639  0.0570290467087631   F   F   F
  0.9542403001528896  0.2795436659304542  0.0574679870984198   F   F   F
  0.9458743286653046  0.3680427080415924  0.1149790603882934   F   F   F
  0.6128411748292564  0.1030876458268679  0.0693820995894541   F   F   F
  0.5371348247957926  0.4795548585398350  0.4739086955930460   T   T   T
  0.5053684878432421  0.6415192820945208  0.4399849684678898   T   T   T
  0.3530315810065190  0.3831174612879309  0.1139933539419786   F   F   F
  0.2174842269140882  0.6713016111511223  0.0931576837422767   F   F   F
  0.3197912612053386  0.7151851324269529  0.3136782384386265   F   F   F
  0.3569995856902963  0.7266290806024571  0.1041992838942463   F   F   F
  0.2952166002044052  0.8499109588456051  0.2967324874515072   F   F   F
  0.4457534324408385  0.5727018812371014  0.2238857011751847   F   F   F
  0.3968114005921208  0.1046407917653056  0.2895432799203590   F   F   F
  0.6281751798832076  0.1894323415591401  0.2322012140063308   F   F   F
  0.9164461831368484  0.0394674229479008  0.2753304865535213   F   F   F
  0.0768050538112917  0.7699092342580371  0.3126900342425003   F   F   F
  0.8135794957257545  0.7400139040935372  0.3487551166627014   F   F   F
  0.8142643121485946  0.5318685102904865  0.1470866827582995   F   F   F
  0.4139713126770346  0.8354762345736049  0.0638292611353819   F   F   F
  0.5323751554582401  0.3912203524743774  0.1561925660258154   F   F   F
  0.4708872141680160  0.3677431071078416  0.3378628794035237   F   F   F
  0.6556410737608971  0.6781304398188652  0.1784730971314730   F   F   F
  0.4649104659011840  0.7137348887377399  0.2072878128788389   F   F   F
  0.7711582843287559  0.3992002084651887  0.1603856930504435   F   F   F
  0.8531552900650041  0.7771234777851106  0.1319116109638045   F   F   F
  0.8555557711340995  0.9218821315753658  0.2486908314972425   F   F   F
  0.8666716863487522  0.5361264808917028  0.3165726826972914   F   F   F
  0.6178087020143437  0.1356376351723014  0.3098407204643436   F   F   F
  0.7742059601853057  0.9983779608971943  0.1842695119189059   F   F   F
  0.5944439823050374  0.5650717847440490  0.2278651503582694   F   F   F
  0.6168192007313493  0.5687318896353943  0.3197847571040597   F   F   F
  0.9609341220278012  0.0785316116270351  0.1939501829471055   F   F   F
  0.3288909966221070  0.1461086466251231  0.1245115007408302   F   F   F
  0.2900141554884073  0.9130596034068432  0.2140210891199317   F   F   F
  0.7444351904681739  0.8819193438660378  0.1250306236113872   F   F   F
  0.7664397290649774  0.6957031088810339  0.2377552893549151   F   F   F
  0.9472954053220874  0.8440192712524492  0.1921579596018361   F   F   F
  0.7267400416718885  0.0941651454060022  0.3641913746245251   F   F   F
  0.1631332857748333  0.8770590515352907  0.3225929347478242   F   F   F
  0.0747643381476806  0.0055645570346456  0.0801330368938551   F   F   F
  0.4666827009087839  0.3224897843564847  0.2247969466185111   F   F   F
  0.0463390594374076  0.2595269837225516  0.2927431361905377   F   F   F
  0.4786404160711442  0.1767096505136010  0.2250962022087393   F   F   F
  0.1982466970767192  0.3256234286949962  0.2175931979309240   F   F   F
  0.0905848677813239  0.6550114881229447  0.2623469181662372   F   F   F
  0.1333524262326122  0.1335630701103412  0.1080277745311662   F   F   F
  0.0410131318574258  0.4955161910617463  0.2094002409973470   F   F   F
  0.3837924111632134  0.8177960692134221  0.1764755764914838   F   F   F
  0.4727747987677517  0.9830192542862122  0.3080877395596318   F   F   F
  0.6336978399464854  0.8784866011414607  0.2542175672479132   F   F   F
  0.2631438262286494  0.2771188841888872  0.1418788786425651   F   F   F
  0.6496138314927009  0.0551729416153393  0.0978093777192655   F   F   F
  0.5811538890514640  0.0137021993679980  0.2597712201124054   F   F   F
  0.1533675349855486  0.4652267385143887  0.0926167845491364   F   F   F
  0.5424282801404061  0.5245035414145178  0.1161905241813272   F   F   F
  0.4644831594134828  0.0120063819839231  0.1181826177147514   F   F   F
  0.8080726377887544  0.2615231845625701  0.1399830641078452   F   F   F
  0.6883417975589268  0.2606432896901651  0.0841687367060118   F   F   F
  0.5719488424589088  0.2617156375732534  0.3359825032013077   F   F   F
  0.4755795462508345  0.8483179634481459  0.3369558338400509   F   F   F
  0.0656733242777889  0.1733491015700608  0.2197232796368525   F   F   F
  0.1590049429209586  0.0128252021746889  0.2859475185521134   F   F   F
  0.8449226795211757  0.1224420721730297  0.1493005566238281   F   F   F
  0.9905293617104505  0.5588302755257288  0.2812326233025573   F   F   F
  0.2957991725007005  0.9171760759459247  0.0888738363536348   F   F   F
  0.8529964995069506  0.1422280933841193  0.3295782205960549   F   F   F
  0.2600955822308606  0.5240413196356215  0.3453935805993780   F   F   F
  0.0324673771235169  0.9559615309004599  0.1599825279448694   F   F   F
  0.1588537918159787  0.9670500355434299  0.2020038811823213   F   F   F
  0.2638603138422155  0.1113380181828205  0.2593421967523071   F   F   F
  0.0374526536656887  0.5372261527403950  0.1225350163649068   F   F   F
  0.7917344601237843  0.0761952131295658  0.0726229913684264   F   F   F
  0.3568230335941536  0.3535372771630776  0.2835855630280548   F   F   F
  0.0812597565400779  0.6786273413328132  0.1193874132733370   F   F   F
  0.1842992092855624  0.1046466187977870  0.1882922815394323   F   F   F
  0.2742994091870656  0.4457506146647319  0.2399020052761855   F   F   F
  0.1487002299613636  0.3146920674496769  0.0930619725899788   F   F   F
  0.5396784876464480  0.7741654361138259  0.2768801871234814   F   F   F
  0.2514402734643681  0.2520154152973006  0.2897171626587323   F   F   F
  0.7188513476373259  0.3992359924573563  0.0712902087633296   F   F   F
  0.8682087940609478  0.6589448052509681  0.1833484127837863   F   F   F
  0.4958408819425628  0.8754910904832371  0.1338918364934329   F   F   F
  0.3789439104763375  0.5822323721951506  0.3040168418746489   F   F   F
  0.6478901785239088  0.4266673348620671  0.2085936316304355   F   F   F
  0.8480693817918876  0.3975861836980954  0.3241937226215867   F   F   F
  0.7604365974240963  0.8219353343820686  0.2812595230425003   F   F   F
  0.6275749217980930  0.8256735514383493  0.1682842287667867   F   F   F
  0.6064323246643752  0.3193060506231262  0.2572475717436475   F   F   F
  0.4721645732286532  0.1462599540523257  0.1386551251963084   F   F   F
  0.5460257925261871  0.2648188621894718  0.1053181275459352   F   F   F
  0.4785074540462233  0.6596421429880479  0.1225514967053840   F   F   F
  0.0274178450749147  0.4770688451096703  0.3520567545132991   F   F   F
  0.9101210374891622  0.2679908481714719  0.3264748944789204   F   F   F
  0.0379621158416015  0.0458589592726995  0.3275548740385972   F   F   F
  0.3371728249920665  0.0104192113971422  0.1573701678141504   F   F   F
  0.3588622950048332  0.4945851541255877  0.1716688986294628   F   F   F
  0.1575391797749575  0.2880021876442100  0.3515066880366220   F   F   F
  0.1527698373171660  0.4289447857936679  0.3256591020239554   F   F   F
  0.6783817494024262  0.5769894488264526  0.1212243129243831   F   F   F
  0.2340999658972862  0.5505823073126024  0.1428800709670668   F   F   F
  0.1764132823350835  0.5526801552951781  0.2247933743307584   F   F   F
  0.0063139113355390  0.7140275920783026  0.1934521449553301   F   F   F
  0.7500079657983605  0.6225020888962050  0.3169326383849267   F   F   F
  0.9371750877181881  0.2945180505713978  0.1034211072363291   F   F   F
  0.6489035571672588  0.0702131821625187  0.1896224477556530   F   F   F
  0.0825845567597057  0.3795620265573447  0.2489721515000412   F   F   F
  0.9076320390071331  0.5317235614048386  0.0762692779751646   F   F   F
  0.0538698770350905  0.2392747424066073  0.1411154552178431   F   F   F
  0.7295293597055519  0.5851553399011920  0.0630798196286264   F   F   F
  0.5680210801780206  0.4806385427717643  0.0596420123605057   F   F   F
  0.3262104369840131  0.4129552349026469  0.0546414117567124   F   F   F
  0.4527867374793715  0.3515599513966023  0.1017702090031847   F   F   F
  0.4721994064174098  0.5922233013474738  0.3344483745523092   F   F   F
  0.5519315819894715  0.6055720167815650  0.3671278676193239   F   F   F
  0.5762814959517897  0.4706293156126833  0.3261994367463714   F   F   F
  0.2131565013480952  0.7137027196645249  0.3014018317892209   F   F   F
  0.3087834644160168  0.7407257750120522  0.3776733101887686   F   F   F
  0.2257156489505263  0.6232798999700080  0.3394124755013976   F   F   F
  0.2859346252288546  0.4515435490535253  0.3904791758505013   F   F   F
  0.5205223987831715  0.4021423186704354  0.2846416211763483   F   F   F
  0.4852053011844930  0.3894860625287393  0.4039923286414933   F   F   F
  0.1374386330817998  0.2304176939027158  0.4049146708948683   F   F   F
  0.5778232607856637  0.6975497664567740  0.3160676839169270   F   F   F
  0.6222081172550489  0.3024384194898602  0.3883346685507618   F   F   F
  0.3748584428410595  0.1905597442639149  0.3250075275333941   F   F   F
  0.7043149477556412  0.1386557932207495  0.4222205063861040   F   F   F
  0.9029409922378377  0.1708108282220238  0.3839449546300173   F   F   F
  0.8950163613521624  0.6940924909672574  0.3175378857958009   F   F   F
  0.7870552317495338  0.7814742763288507  0.4070434490354558   F   F   F
  0.9238095769618724  0.5460155739475994  0.3729290836816190   F   F   F
  0.7556285816869703  0.3459001262084911  0.3184197086653739   F   F   F
  0.8595935414894669  0.4505640627738927  0.3801763616673597   F   F   F
  0.0244643314929078  0.5380967317857142  0.4067412539485176   F   F   F
  0.9483985358488027  0.4116642202845782  0.3697508216306815   F   F   F
  0.9676605819333375  0.7691064327784787  0.3168012138024849   F   F   F
  0.0912967757518217  0.7167133972268402  0.3696098054961325   F   F   F
  0.1378062168724057  0.8391375694749996  0.3804353436441517   F   F   F
  0.9828436949210797  0.1158159599457775  0.3615692374952673   F   F   F
  0.0644670822955433  0.9671068797136968  0.3691640401509559   F   F   F
  0.5510388885062838  0.9110393483325012  0.3570788576229589   F   F   F
  0.4008369243727401  0.7920245194951789  0.3682462501614552   F   F   F
  0.3625718836013689  0.9023140177848177  0.3349439953626572   F   F   F
  0.7212141947481641  0.9891426139729305  0.3717931930693794   F   F   F
  0.5502585381762373  0.0278160302363801  0.3421515583633550   F   F   F
  0.9342192427351250  0.2989999728844737  0.3885645616941673   F   F   F
  0.8190656693501950  0.4249458545109377  0.0526746772130764   F   F   F
  0.6706431248174098  0.4894185867526346  0.0605779403529922   F   F   F
  0.7266311379403732  0.1832359485427020  0.0430688931689218   F   F   F
  0.3117571657772871  0.1007267021852982  0.0657390321045597   F   F   F
  0.1386831437995966  0.2430349241724130  0.0476074910104956   F   F   F
  0.2230160527933265  0.4841126354406811  0.0458088552894438   F   F   F
  0.2530852622487387  0.8197815090048692  0.0978961746836546   F   F   F
  0.4765124589544598  0.2757026298434013  0.0562017180356378   F   F   F
  0.4547161242084670  0.8174061799682590  0.0037861851909753   F   F   F
  0.1620839046827385  0.6702105091382506  0.0371984991890102   F   F   F
  0.4138783903823011  0.9737648903613945  0.0656062979892553   F   F   F
  0.0143861219515315  0.7206923009114163  0.0762870584867414   F   F   F
  0.8751229674537200  0.7937430105931185  0.0685933300298629   F   F   F
  0.7026749749661008  0.9306629658169712  0.0751172106936195   F   F   F
  0.5250081399260011  0.7359126531901410  0.0885966854195672   F   F   F
  0.2208966214848758  0.9602124270883010  0.0521563222825137   F   F   F
  0.9253407447990227  0.6164598848843568  0.0389786936712184   F   F   F
  0.9321885324536794  0.4507072707392581  0.0359585745601407   F   F   F
  0.5949778408553783  0.9645255776877875  0.0963173211689252   F   F   F
  0.7997392982534777  0.9721774216574630  0.0657569315940947   F   F   F
  0.7806355949786052  0.1022224277063302  0.0086609818600820   F   F   F
  0.2142125198945308  0.1559359738491608  0.0693362722777806   F   F   F
  0.9820076092592771  0.0364453626086743  0.0548903231828604   F   F   F
  0.9979720505974470  0.2825376732104488  0.0498800093392902   F   F   F
  0.9320635655884075  0.3990130598545889  0.0956794618081744   F   F   F
  0.1152367364052012  0.9359056083648980  0.0379437330732415   F   F   F
  0.6353697124213440  0.1415290840547456  0.0614955419897427   F   F   F
  0.4686072642382229  0.5189234275572403  0.3974473885672154   T   T   T
  0.4904473315985882  0.5961267369587446  0.4222579291607076   T   T   T