 O Si  H Mo  C  O                       
   1.00000000000000     
    21.3948993682999991    0.0000000000000000    0.0000000000000000
     0.0000000000000000   21.3948993682999991    0.0000000000000000
     0.0000000000000000    0.0000000000000000   34.1699981689000012
   O    Si   H    Mo   C 
   238   102    64     1     2
Selective
Direct
0.2826097916358677 0.7101163133745886 0.1005492902027560  F  F  F
0.6119405528968036 0.6268378432827618 0.2016591244788974  F  F  F
0.1517269141714900 0.3899238168397042 0.0915891017216389  F  F  F
0.3796285348232720 0.4383996779498203 0.1424671548017987  F  F  F
0.6774023920884189 0.8502427658179754 0.1358677967984604  F  F  F
0.1022580600874377 0.4675548089459093 0.3519572363954022  F  F  F
0.0043063142034900 0.7597425233272543 0.3007640220276854  F  F  F
0.6602629774238962 0.1456096804827597 0.1986922540130240  F  F  F
0.2146236821822556 0.9152433323528556 0.2058760491389937  F  F  F
0.8453409175565639 0.5338110784626349 0.1032821240353087  F  F  F
0.4113231506516868 0.7682066882237756 0.2082188170706872  F  F  F
0.5193508498357131 0.5527733960734275 0.2247204928790668  F  F  F
0.1145790222186993 0.5124346341313364 0.2143868792046735  F  F  F
0.6127922927739525 0.4961747365014358 0.3332830148670816  F  F  F
0.4354305702101552 0.6477355429135923 0.2214345951740917  F  F  F
0.1271958540866518 0.4167339564553616 0.2809491028444472  F  F  F
0.5193790356434279 0.7363393338948112 0.2370381824824843  F  F  F
0.3188100568816865 0.9808867348132480 0.2001446760883946  F  F  F
0.3226507308086887 0.8558144546726011 0.1903091474678768  F  F  F
0.8121693811091462 0.8755358883520978 0.2741340235011042  F  F  F
0.9767501791027499 0.2458467817964682 0.3090552212831098  F  F  F
0.9869451306719567 0.0418856981329585 0.2919899827005176  F  F  F
0.0038079388292837 0.0212463294624316 0.1771803976278744  F  F  F
0.0979169342260136 0.2965867464450480 0.1268303572296235  F  F  F
0.5916993991575838 0.7328615411368224 0.3000298293186445  F  F  F
0.4320404216189606 0.5703490281455977 0.3389915186660654  F  F  F
0.8004681655516007 0.3277303890515318 0.1660998363411484  F  F  F
0.0670426988730683 0.2041095448803913 0.2629852178154016  F  F  F
0.5214383389928170 0.6905785758473110 0.0880280673886927  F  F  F
0.1523921344878778 0.6123367168371043 0.2513529139887362  F  F  F
0.5531403435056670 0.1788501832810337 0.2333747676889418  F  F  F
0.7187059184182844 0.4134701230984313 0.1940868491420772  F  F  F
0.5108152113366160 0.9499379483891373 0.1240569123666956  F  F  F
0.2524352006476200 0.8622848277878508 0.1077355679566777  F  F  F
0.6289483271176510 0.7496159690649713 0.1747282705157184  F  F  F
0.7419604501075581 0.9070259172063504 0.0794132232347286  F  F  F
0.6917091845264238 0.8535635432657105 0.2802933798810658  F  F  F
0.7225123931383403 0.6812499418559125 0.2004671560151755  F  F  F
0.2212653486941975 0.2821856940196353 0.1816588003067481  F  F  F
0.1116693121869249 0.0614041703038290 0.1024259201846753  F  F  F
0.5644472526478085 0.1876292995131566 0.3236760670526792  F  F  F
0.7798296688267458 0.6713215373855723 0.3483497766607122  F  F  F
0.2060638439471752 0.2858868897111767 0.2580014889422377  F  F  F
0.6152105495970074 0.5369611778317386 0.1304353538175454  F  F  F
0.3305068628681363 0.4667962438050350 0.2117331672030719  F  F  F
0.3148446454273184 0.3331983008810772 0.1412035348337477  F  F  F
0.3039695738938005 0.9693497859498749 0.1232054039691571  F  F  F
0.4990958197283215 0.5860768626891929 0.1261166817065487  F  F  F
0.8667962664265322 0.4629305821373950 0.3019008867290979  F  F  F
0.5909161967284708 0.0678659342263165 0.2942389006666472  F  F  F
0.4633960584799219 0.1375027911066362 0.1857972122108953  F  F  F
0.4790832065510556 0.7921174446919877 0.3039319955421376  F  F  F
0.5118418785439970 0.4173170581141025 0.3111225706447046  F  F  F
0.1019932251397703 0.8406060836834321 0.3036208428424739  F  F  F
0.3082732164373594 0.4121222655393725 0.2780365615520920  F  F  F
0.7802002982094249 0.1332246891092854 0.3410886779264169  F  F  F
0.4912902713599659 0.7000776348740075 0.1629515865196859  F  F  F
0.9887340887642460 0.8965325458743146 0.1700402687919171  F  F  F
0.8844574977452496 0.7336549138129684 0.3299318592314963  F  F  F
0.6109855950415231 0.5800699526760954 0.2729770362000092  F  F  F
0.7937933700253356 0.8240335411857416 0.1275739167483348  F  F  F
0.8889883007294924 0.3368167188590447 0.3103595596668751  F  F  F
0.8202150377367732 0.4596302310624791 0.1637864857024655  F  F  F
0.6372626265790977 0.2657550011980304 0.2283998133359798  F  F  F
0.9020297895953361 0.8138965262814837 0.1593356211604771  F  F  F
0.8722693957274584 0.0909154569267585 0.2970171697915132  F  F  F
0.4444803482422486 0.9130340703250350 0.3160493168009548  F  F  F
0.1076101352752473 0.0548779590923169 0.3085153976053236  F  F  F
0.0335377178058281 0.4248737452865109 0.2261577083384222  F  F  F
0.5702547970060443 0.8411790302918120 0.2647494124283885  F  F  F
0.0032039554206045 0.1325404446982365 0.2135099508128483  F  F  F
0.2170681637654980 0.2850305452338047 0.1043863670723970  F  F  F
0.4382895678437416 0.8683910762431551 0.1647854027884250  F  F  F
0.4127644395085038 0.0059078269067710 0.1529301144578767  F  F  F
0.1247559449280595 0.1264036453169732 0.2146623893150316  F  F  F
0.1012234433128529 0.9387675793214043 0.1771187345769267  F  F  F
0.3037832388978817 0.8980053966494177 0.2598541416327727  F  F  F
0.3623485010281853 0.7768910402841106 0.1392081747172342  F  F  F
0.5905248977665052 0.0462660534977239 0.2170640283539846  F  F  F
0.3177844619694108 0.0841204979275681 0.1519474922446971  F  F  F
0.4063578090596285 0.3510829726406668 0.2472496483745097  F  F  F
0.5160187784036788 0.2079946885363980 0.1318054784054742  F  F  F
0.6959333710046687 0.3278992683858002 0.0624254518488552  F  F  F
0.8389128127779225 0.7079721095421474 0.1507540820511392  F  F  F
0.8373052114188665 0.6736507496472677 0.2261924600526713  F  F  F
0.6209022388049984 0.2561000038743272 0.1061078666397568  F  F  F
0.3809424477878801 0.7661131099064565 0.0655019518791272  F  F  F
0.4198205161256758 0.0371019236799095 0.3061892193515743  F  F  F
0.3169888351170117 0.5428113151730523 0.3150266713391071  F  F  F
0.2455927758765435 0.1236645694357250 0.2136709140475355  F  F  F
0.7397571878276074 0.5491001337181681 0.1440128473983421  F  F  F
0.6313798421497484 0.0644257630236728 0.1439232855166838  F  F  F
0.8134588912862222 0.9630835068989616 0.2183207949217625  F  F  F
0.1652484476988715 0.3631610345905491 0.3476922908497468  F  F  F
0.2469707081194024 0.6895041783320585 0.3132128711675092  F  F  F
0.0443344974739426 0.7202513608818955 0.1519463649787661  F  F  F
0.6677729523356255 0.6497493165726158 0.1345439163363669  F  F  F
0.7077223630631736 0.0251481604267811 0.2009749999130234  F  F  F
0.6455394401010615 0.8647951347675376 0.2076429563709686  F  F  F
0.4107624275444146 0.3499028514095905 0.0903463131010912  F  F  F
0.5193933524281888 0.2624641200462585 0.0607360999474754  F  F  F
0.9078445748738672 0.8788922668997957 0.2263699122710836  F  F  F
0.5305208477017488 0.3360234435893796 0.1225875027715231  F  F  F
0.4038100459894501 0.1575830947236291 0.1185956091515959  F  F  F
0.7668835768314831 0.7703547785013021 0.2462459152662344  F  F  F
0.6339938458690051 0.9817903364805927 0.0859536277909200  F  F  F
0.2165511078721910 0.4695592110904963 0.3253002947323652  F  F  F
0.0537191462983044 0.6790126744965120 0.2235234615063119  F  F  F
0.8880511089711618 0.9691386128411907 0.2799878460208127  F  F  F
0.1851120634333769 0.0296147428873739 0.1802892300532412  F  F  F
0.3365681050576836 0.0906446360863347 0.2617855319363919  F  F  F
0.0410631941250209 0.6147562536738141 0.2893297691831020  F  F  F
0.9187215916976144 0.1104241048341355 0.1594226598394514  F  F  F
0.4476961176869234 0.1425650881806240 0.2626134576387885  F  F  F
0.1815203311608212 0.1378314514196641 0.1453798760029036  F  F  F
0.1313265539790414 0.9879167158972394 0.2443286460249802  F  F  F
0.3211363335499846 0.8830798637443138 0.3360968823031947  F  F  F
0.2958517023790784 0.1355600246294603 0.0811245324607106  F  F  F
0.8645825719296982 0.2720290038702957 0.1088681822946985  F  F  F
0.8832501505970802 0.7623953326704648 0.0884676945631578  F  F  F
0.1154423811900359 0.7156206635217828 0.2874097922875413  F  F  F
0.4751307681032082 0.8381707760528896 0.0936369699095294  F  F  F
0.4339922466568290 0.0123257427601656 0.0743055155541809  F  F  F
0.2214563058846759 0.8354740705160653 0.3054685916569346  F  F  F
0.8081761911419526 0.0620187677963773 0.1682318236855735  F  F  F
0.9436838448580538 0.6706655554380276 0.1866916049177603  F  F  F
0.3201646404811591 0.2865900825094885 0.2878000040620892  F  F  F
0.9152705297168003 0.0536528183449620 0.2284506864745550  F  F  F
0.7976107390403513 0.5643414068728890 0.3095524813194245  F  F  F
0.3643149126074646 0.6573547666570726 0.2989568183757056  F  F  F
0.5041035297857757 0.2984574778831559 0.3401003830838065  F  F  F
0.6596799014090395 0.1208021770074384 0.3479953468334766  F  F  F
0.9185486141834527 0.5788007353749435 0.2925428911333648  F  F  F
0.9711051804420461 0.5485583189992447 0.1000832404781558  F  F  F
0.5102489223643353 0.9878111863250160 0.2660943341778526  F  F  F
0.4027413883006823 0.6663770704469105 0.1120750748648121  F  F  F
0.3819337584445621 0.1461183564890657 0.3285873927478748  F  F  F
0.4784906942316148 0.3671381906816522 0.1869785821746281  F  F  F
0.0211075674170035 0.5039191157410349 0.1640630243551088  F  F  F
0.0819721589696682 0.4920619468321581 0.0964654086395534  F  F  F
0.2065683477816008 0.5789292258417824 0.1840016854792130  F  F  F
0.9806155917580983 0.2543798368720253 0.1338455699244212  F  F  F
0.1954162177603155 0.4876699345015510 0.1305180096002264  F  F  F
0.3663379014051921 0.8922536405243986 0.0760217546034540  F  F  F
0.3080397255230472 0.5370952037186647 0.1485931099411453  F  F  F
0.7392071357335254 0.4029196864990428 0.1174076220276493  F  F  F
0.1559232436821219 0.6966821256464633 0.1176847904192077  F  F  F
0.5594173510885794 0.6124417246295527 0.3387606879102364  F  F  F
0.6142575778270514 0.2989021058204017 0.3030764106122635  F  F  F
0.4538816333124892 0.2485206747981965 0.2174448487333236  F  F  F
0.2579938911097445 0.1782230586889486 0.2815977166724237  F  F  F
0.6843408890382185 0.5960609755691757 0.3337208060742941  F  F  F
0.5302224191013823 0.3282303664526627 0.2516856827077815  F  F  F
0.3987329421983494 0.3621732674649091 0.3232381562672836  F  F  F
0.2978465260899099 0.2093527372629767 0.1420712463031772  F  F  F
0.6004207831603912 0.3940683435452818 0.1770667787268255  F  F  F
0.5388383123679628 0.5124208573063719 0.0692079011943979  F  F  F
0.2375595413679059 0.3902212421612829 0.2174366041874641  F  F  F
0.6379315814639260 0.3874506559224373 0.2497703877856944  F  F  F
0.0381943043197292 0.9628341811641234 0.1125555738472132  F  F  F
0.8511912783475202 0.5861866478308915 0.1720623338392543  F  F  F
0.6896888357730856 0.5712288742321929 0.0735642003104138  F  F  F
0.6317133119429797 0.5007010299780612 0.2151377048374437  F  F  F
0.0711651578104846 0.1751535453555353 0.1169185049734278  F  F  F
0.9115962570476426 0.2663197099633597 0.3748675542592090  F  F  F
0.8353530186472438 0.1177350588975912 0.1018622978524571  F  F  F
0.5002164060741326 0.0794046685160224 0.1225465389063734  F  F  F
0.6275427198988650 0.9533812231859111 0.2634647325663464  F  F  F
0.2288914686415158 0.5999992715175156 0.1072413413788117  F  F  F
0.0668559813942208 0.2290644737409810 0.1874899929129170  F  F  F
0.7624171427438561 0.9431712281279044 0.1516342951266511  F  F  F
0.8224606826825939 0.1938845816989994 0.1630244601744992  F  F  F
0.2215662001978602 0.2582878743179812 0.3331473759099791  F  F  F
0.0268577840942348 0.1073377986772751 0.3548023281737057  F  F  F
0.7251138509681605 0.0625408233516731 0.0937730866366933  F  F  F
0.3058930093035889 0.4116141106347018 0.0800617448984568  F  F  F
0.7712299847983392 0.7895281532817652 0.3237247867033517  F  F  F
0.0729591909251642 0.6040926719068320 0.1293378126843871  F  F  F
0.8591368985848696 0.2146712493107140 0.3140435516448001  F  F  F
0.1254217815761255 0.3461473579156676 0.2154459583981547  F  F  F
0.0417192191733754 0.3273215701475499 0.2714910196515546  F  F  F
0.6578557485551952 0.1669714976574689 0.2741666224009879  F  F  F
0.2281188427508148 0.5068574088787426 0.2463394260416357  F  F  F
0.7401932957946824 0.6577088003490162 0.2751886323058019  F  F  F
0.7423291172568752 0.2507364914151486 0.1170737318278146  F  F  F
0.0058112106011999 0.4979384760689407 0.3082339742910013  F  F  F
0.2192227724719196 0.5857405996670885 0.3558252168422656  F  F  F
0.3258847781835779 0.7797184994859485 0.2878661543116775  F  F  F
0.0964247939396490 0.2621992889110145 0.3282435968129048  F  F  F
0.4093882271954566 0.5531970462502279 0.2640742657125632  F  F  F
0.7377817242128145 0.0204076739872739 0.3541095724624662  F  F  F
0.4170086284977511 0.5377972310662085 0.1856652758338905  F  F  F
0.0506825141897957 0.6933534622612976 0.0759735838897151  F  F  F
0.9953377277378130 0.5407965955648169 0.2351207329168593  F  F  F
0.5177618375809813 0.4609089252321538 0.1392147810485491  F  F  F
0.9887246885525797 0.7847047417155181 0.2085162863389571  F  F  F
0.1746514938058719 0.9496544926264112 0.3106016237777691  F  F  F
0.5582767755887111 0.8438069704952260 0.1517639971536789  F  F  F
0.2208349549089576 0.0562964409563118 0.2787014438593449  F  F  F
0.3415410328469323 0.7291761487624534 0.3593789895680509  F  F  F
0.2917124169383069 0.4957074027259419 0.3854184361888809  F  F  F
0.4660993360509797 0.4049779341235036 0.3801520663772679  F  F  F
0.1519810672672483 0.2718858433909840 0.3979628878478040  F  F  F
0.6087214445003626 0.2624767837899942 0.3779256891160411  F  F  F
0.7286431737469364 0.1043464811990513 0.4116421162507211  F  F  F
0.9001821692242802 0.1331842156115706 0.3676519771170913  F  F  F
0.8231680150407820 0.7651698408942949 0.3933078802972904  F  F  F
0.8806300782588531 0.5383539131119215 0.3639746186940456  F  F  F
0.8666775757870221 0.4073521695847648 0.3713264198550583  F  F  F
0.7735824885928509 0.3873630849669380 0.3163964076527827  F  F  F
0.0081614425936729 0.5375845276241709 0.3802334344247022  F  F  F
0.9944736487489751 0.4124864213585649 0.3663213723126902  F  F  F
0.5454111992070733 0.8661100083690763 0.3526793803276732  F  F  F
0.0940099400725062 0.7590562648025370 0.3595527652043988  F  F  F
0.1563733909784448 0.8776655925706729 0.3703519442853361  F  F  F
0.0325342503913096 0.9785168659087855 0.3502740141045573  F  F  F
0.4311545868789162 0.8258486648107148 0.3725138062911474  F  F  F
0.5208634625222128 0.9934420776731229 0.3455097769069203  F  F  F
0.6587860824077993 0.4449144480115437 0.0622619492776173  F  F  F
0.7763779368301211 0.4207869871037848 0.0430281245301354  F  F  F
0.6878730431737605 0.2038011439549878 0.0521343301775666  F  F  F
0.1268639306257903 0.2872415175415210 0.0504811560428521  F  F  F
0.1795672173659955 0.4937034160104158 0.0513634926796236  F  F  F
0.4368325394150179 0.8507024025823603 0.0193886583842999  F  F  F
0.2045756090677037 0.6769775970705112 0.0462164617840831  F  F  F
0.2656258687124221 0.9500331167028503 0.0501136344199337  F  F  F
0.9001475617635398 0.5787776297308560 0.0388726720692455  F  F  F
0.9079858156714115 0.4585028475388745 0.0595442103261263  F  F  F
0.8240881958210491 0.0102184945849732 0.0597339774144634  F  F  F
0.7823020810374272 0.1224650049214594 0.0340356693170646  F  F  F
0.1683200100998550 0.1616755559363505 0.0692140668838784  F  F  F
0.0249392610265012 0.0290486061290153 0.0469206913563970  F  F  F
0.1300863945793866 0.9660581567517615 0.0570290467087642  F  F  F
0.9542403001528871 0.2795436659304542 0.0574679870984180  F  F  F
0.9458743286653052 0.3680427080415914 0.1149790603882905  F  F  F
0.6128411748292562 0.1030876458268658 0.0693820995894576  F  F  F
0.5371348247957914 0.4795548585398338 0.4739086955930474  T  T  T
0.5053684878432400 0.6415192820945197 0.4399849684678932  T  T  T
0.3530315810065211 0.3831174612879289 0.1139933539419787  F  F  F
0.2174842269140859 0.6713016111511210 0.0931576837422794  F  F  F
0.3197912612053389 0.7151851324269548 0.3136782384386268  F  F  F
0.3569995856902949 0.7266290806024596 0.1041992838942457  F  F  F
0.2952166002044024 0.8499109588456054 0.2967324874515089  F  F  F
0.4457534324408413 0.5727018812370990 0.2238857011751818  F  F  F
0.3968114005921231 0.1046407917653071 0.2895432799203610  F  F  F
0.6281751798832094 0.1894323415591405 0.2322012140063289  F  F  F
0.9164461831368500 0.0394674229479023 0.2753304865535203  F  F  F
0.0768050538112894 0.7699092342580391 0.3126900342425021  F  F  F
0.8135794957257521 0.7400139040935354 0.3487551166626988  F  F  F
0.8142643121485960 0.5318685102904842 0.1470866827583029  F  F  F
0.4139713126770322 0.8354762345736030 0.0638292611353815  F  F  F
0.5323751554582413 0.3912203524743783 0.1561925660258174  F  F  F
0.4708872141680148 0.3677431071078442 0.3378628794035224  F  F  F
0.6556410737608972 0.6781304398188639 0.1784730971314716  F  F  F
0.4649104659011867 0.7137348887377429 0.2072878128788378  F  F  F
0.7711582843287587 0.3992002084651862 0.1603856930504450  F  F  F
0.8531552900650053 0.7771234777851141 0.1319116109638011  F  F  F
0.8555557711341003 0.9218821315753668 0.2486908314972401  F  F  F
0.8666716863487519 0.5361264808917018 0.3165726826972912  F  F  F
0.6178087020143426 0.1356376351723017 0.3098407204643470  F  F  F
0.7742059601853075 0.9983779608971961 0.1842695119189082  F  F  F
0.5944439823050406 0.5650717847440517 0.2278651503582703  F  F  F
0.6168192007313480 0.5687318896353978 0.3197847571040579  F  F  F
0.9609341220278007 0.0785316116270374 0.1939501829471035  F  F  F
0.3288909966221089 0.1461086466251232 0.1245115007408267  F  F  F
0.2900141554884074 0.9130596034068454 0.2140210891199292  F  F  F
0.7444351904681763 0.8819193438660362 0.1250306236113845  F  F  F
0.7664397290649764 0.6957031088810318 0.2377552893549139  F  F  F
0.9472954053220862 0.8440192712524469 0.1921579596018356  F  F  F
0.7267400416718874 0.0941651454060016 0.3641913746245218  F  F  F
0.1631332857748359 0.8770590515352916 0.3225929347478274  F  F  F
0.0747643381476784 0.0055645570346469 0.0801330368938580  F  F  F
0.4666827009087817 0.3224897843564864 0.2247969466185143  F  F  F
0.0463390594374096 0.2595269837225533 0.2927431361905395  F  F  F
0.4786404160711454 0.1767096505136021 0.2250962022087385  F  F  F
0.1982466970767209 0.3256234286949960 0.2175931979309245  F  F  F
0.0905848677813229 0.6550114881229424 0.2623469181662402  F  F  F
0.1333524262326089 0.1335630701103381 0.1080277745311653  F  F  F
0.0410131318574268 0.4955161910617457 0.2094002409973464  F  F  F
0.3837924111632168 0.8177960692134222 0.1764755764914829  F  F  F
0.4727747987677520 0.9830192542862106 0.3080877395596306  F  F  F
0.6336978399464822 0.8784866011414613 0.2542175672479146  F  F  F
0.2631438262286487 0.2771188841888890 0.1418788786425676  F  F  F
0.6496138314926991 0.0551729416153409 0.0978093777192658  F  F  F
0.5811538890514617 0.0137021993679975 0.2597712201124053  F  F  F
0.1533675349855477 0.4652267385143912 0.0926167845491342  F  F  F
0.5424282801404050 0.5245035414145214 0.1161905241813307  F  F  F
0.4644831594134836 0.0120063819839216 0.1181826177147521  F  F  F
0.8080726377887535 0.2615231845625696 0.1399830641078431  F  F  F
0.6883417975589243 0.2606432896901680 0.0841687367060107  F  F  F
0.5719488424589108 0.2617156375732533 0.3359825032013055  F  F  F
0.4755795462508379 0.8483179634481465 0.3369558338400478  F  F  F
0.0656733242777894 0.1733491015700610 0.2197232796368535  F  F  F
0.1590049429209573 0.0128252021746914 0.2859475185521165  F  F  F
0.8449226795211771 0.1224420721730331 0.1493005566238315  F  F  F
0.9905293617104509 0.5588302755257271 0.2812326233025542  F  F  F
0.2957991725006972 0.9171760759459280 0.0888738363536350  F  F  F
0.8529964995069531 0.1422280933841180 0.3295782205960536  F  F  F
0.2600955822308617 0.5240413196356249 0.3453935805993807  F  F  F
0.0324673771235185 0.9559615309004572 0.1599825279448686  F  F  F
0.1588537918159797 0.9670500355434307 0.2020038811823193  F  F  F
0.2638603138422144 0.1113380181828215 0.2593421967523097  F  F  F
0.0374526536656876 0.5372261527403924 0.1225350163649059  F  F  F
0.7917344601237833 0.0761952131295667 0.0726229913684247  F  F  F
0.3568230335941524 0.3535372771630799 0.2835855630280550  F  F  F
0.0812597565400808 0.6786273413328155 0.1193874132733336  F  F  F
0.1842992092855637 0.1046466187977890 0.1882922815394358  F  F  F
0.2742994091870645 0.4457506146647294 0.2399020052761871  F  F  F
0.1487002299613604 0.3146920674496740 0.0930619725899760  F  F  F
0.5396784876464492 0.7741654361138248 0.2768801871234832  F  F  F
0.2514402734643704 0.2520154152972985 0.2897171626587348  F  F  F
0.7188513476373292 0.3992359924573529 0.0712902087633283  F  F  F
0.8682087940609452 0.6589448052509663 0.1833484127837892  F  F  F
0.4958408819425599 0.8754910904832396 0.1338918364934327  F  F  F
0.3789439104763397 0.5822323721951509 0.3040168418746484  F  F  F
0.6478901785239064 0.4266673348620665 0.2085936316304383  F  F  F
0.8480693817918845 0.3975861836980969 0.3241937226215851  F  F  F
0.7604365974240974 0.8219353343820718 0.2812595230425026  F  F  F
0.6275749217980933 0.8256735514383464 0.1682842287667836  F  F  F
0.6064323246643726 0.3193060506231233 0.2572475717436452  F  F  F
0.4721645732286508 0.1462599540523289 0.1386551251963060  F  F  F
0.5460257925261860 0.2648188621894703 0.1053181275459366  F  F  F
0.4785074540462217 0.6596421429880469 0.1225514967053834  F  F  F
0.0274178450749126 0.4770688451096722 0.3520567545133018  F  F  F
0.9101210374891628 0.2679908481714691 0.3264748944789234  F  F  F
0.0379621158416021 0.0458589592727013 0.3275548740385976  F  F  F
0.3371728249920631 0.0104192113971439 0.1573701678141493  F  F  F
0.3588622950048361 0.4945851541255895 0.1716688986294639  F  F  F
0.1575391797749588 0.2880021876442089 0.3515066880366244  F  F  F
0.1527698373171645 0.4289447857936712 0.3256591020239582  F  F  F
0.6783817494024281 0.5769894488264506 0.1212243129243805  F  F  F
0.2340999658972890 0.5505823073126000 0.1428800709670644  F  F  F
0.1764132823350844 0.5526801552951784 0.2247933743307599  F  F  F
0.0063139113355371 0.7140275920783030 0.1934521449553330  F  F  F
0.7500079657983578 0.6225020888962040 0.3169326383849256  F  F  F
0.9371750877181909 0.2945180505713945 0.1034211072363279  F  F  F
0.6489035571672607 0.0702131821625194 0.1896224477556529  F  F  F
0.0825845567597052 0.3795620265573478 0.2489721515000436  F  F  F
0.9076320390071307 0.5317235614048395 0.0762692779751637  F  F  F
0.0538698770350940 0.2392747424066061 0.1411154552178458  F  F  F
0.7295293597055512 0.5851553399011900 0.0630798196286260  F  F  F
0.5680210801780207 0.4806385427717615 0.0596420123605084  F  F  F
0.3262104369840134 0.4129552349026452 0.0546414117567090  F  F  F
0.4527867374793724 0.3515599513966002 0.1017702090031826  F  F  F
0.4721994064174120 0.5922233013474719 0.3344483745523105  F  F  F
0.5519315819894690 0.6055720167815648 0.3671278676193222  F  F  F
0.5762814959517877 0.4706293156126856 0.3261994367463695  F  F  F
0.2131565013480980 0.7137027196645218 0.3014018317892231  F  F  F
0.3087834644160179 0.7407257750120513 0.3776733101887699  F  F  F
0.2257156489505256 0.6232798999700063 0.3394124755013963  F  F  F
0.2859346252288546 0.4515435490535230 0.3904791758504999  F  F  F
0.5205223987831715 0.4021423186704374 0.2846416211763478  F  F  F
0.4852053011844923 0.3894860625287398 0.4039923286414940  F  F  F
0.1374386330817964 0.2304176939027161 0.4049146708948652  F  F  F
0.5778232607856608 0.6975497664567745 0.3160676839169282  F  F  F
0.6222081172550482 0.3024384194898637 0.3883346685507629  F  F  F
0.3748584428410570 0.1905597442639160 0.3250075275333946  F  F  F
0.7043149477556440 0.1386557932207509 0.4222205063861035  F  F  F
0.9029409922378412 0.1708108282220267 0.3839449546300175  F  F  F
0.8950163613521652 0.6940924909672551 0.3175378857957989  F  F  F
0.7870552317495353 0.7814742763288474 0.4070434490354563  F  F  F
0.9238095769618759 0.5460155739476021 0.3729290836816181  F  F  F
0.7556285816869688 0.3459001262084934 0.3184197086653771  F  F  F
0.8595935414894644 0.4505640627738902 0.3801763616673632  F  F  F
0.0244643314929071 0.5380967317857126 0.4067412539485210  F  F  F
0.9483985358488032 0.4116642202845813 0.3697508216306826  F  F  F
0.9676605819333404 0.7691064327784772 0.3168012138024862  F  F  F
0.0912967757518228 0.7167133972268430 0.3696098054961301  F  F  F
0.1378062168724063 0.8391375694749968 0.3804353436441535  F  F  F
0.9828436949210817 0.1158159599457788 0.3615692374952699  F  F  F
0.0644670822955402 0.9671068797136996 0.3691640401509571  F  F  F
0.5510388885062829 0.9110393483325011 0.3570788576229595  F  F  F
0.4008369243727404 0.7920245194951808 0.3682462501614528  F  F  F
0.3625718836013667 0.9023140177848195 0.3349439953626599  F  F  F
0.7212141947481635 0.9891426139729319 0.3717931930693794  F  F  F
0.5502585381762384 0.0278160302363835 0.3421515583633531  F  F  F
0.9342192427351216 0.2989999728844768 0.3885645616941705  F  F  F
0.8190656693501976 0.4249458545109367 0.0526746772130743  F  F  F
0.6706431248174091 0.4894185867526318 0.0605779403529916  F  F  F
0.7266311379403723 0.1832359485427034 0.0430688931689225  F  F  F
0.3117571657772854 0.1007267021853002 0.0657390321045566  F  F  F
0.1386831437995942 0.2430349241724136 0.0476074910104949  F  F  F
0.2230160527933241 0.4841126354406786 0.0458088552894469  F  F  F
0.2530852622487382 0.8197815090048680 0.0978961746836562  F  F  F
0.4765124589544569 0.2757026298434032 0.0562017180356386  F  F  F
0.4547161242084647 0.8174061799682598 0.0037861851909722  F  F  F
0.1620839046827378 0.6702105091382490 0.0371984991890085  F  F  F
0.4138783903822979 0.9737648903613939 0.0656062979892555  F  F  F
0.0143861219515298 0.7206923009114159 0.0762870584867391  F  F  F
0.8751229674537188 0.7937430105931184 0.0685933300298616  F  F  F
0.7026749749661002 0.9306629658169679 0.0751172106936193  F  F  F
0.5250081399259995 0.7359126531901444 0.0885966854195662  F  F  F
0.2208966214848757 0.9602124270882981 0.0521563222825145  F  F  F
0.9253407447990205 0.6164598848843600 0.0389786936712172  F  F  F
0.9321885324536773 0.4507072707392581 0.0359585745601418  F  F  F
0.5949778408553815 0.9645255776877890 0.0963173211689223  F  F  F
0.7997392982534753 0.9721774216574601 0.0657569315940925  F  F  F
0.7806355949786068 0.1022224277063296 0.0086609818600792  F  F  F
0.2142125198945306 0.1559359738491586 0.0693362722777779  F  F  F
0.9820076092592738 0.0364453626086712 0.0548903231828627  F  F  F
0.9979720505974485 0.2825376732104474 0.0498800093392918  F  F  F
0.9320635655884075 0.3990130598545911 0.0956794618081745  F  F  F
0.1152367364052010 0.9359056083648974 0.0379437330732393  F  F  F
0.6353697124213438 0.1415290840547451 0.0614955419897427  F  F  F
0.4686072642382196 0.5189234275572435 0.3974473885672123  T  T  T
0.4904473315985902 0.5961267369587444 0.4222579291607047  T  T  T
0.5101336837304451 0.4923897778207744 0.4446683655463687  T  T  T
