 O Si  H Mo  S                          
   1.00000000000000     
    21.3948993682999991    0.0000000000000000    0.0000000000000000
     0.0000000000000000   21.3948993682999991    0.0000000000000000
     0.0000000000000000    0.0000000000000000   34.1699981689000012
   O    Si   H    Mo   S 
   236   102    68     2     6
Selective dynamics
Direct
  0.2822549383244137  0.7114471502080164  0.1006495801903000   F   F   F
  0.6128530497884839  0.6248301029426031  0.2007227687943356   F   F   F
  0.1541525353494393  0.3908373282536175  0.0931647317373034   F   F   F
  0.3809281522918013  0.4383005115854317  0.1425055996105016   F   F   F
  0.6785276655877794  0.8494679332951378  0.1354674807083427   F   F   F
  0.1066794967326743  0.4714921018890905  0.3538929796450674   F   F   F
  0.0029924603304110  0.7638531250954159  0.2946969195366336   F   F   F
  0.6599664088988106  0.1433142749941609  0.1968966097972853   F   F   F
  0.2148617626548415  0.9160815142699974  0.2049254829507561   F   F   F
  0.8455564312637094  0.5336217162677315  0.1017272114894112   F   F   F
  0.4117642879306445  0.7671849438919338  0.2082743939589022   F   F   F
  0.5210450543824550  0.5499450608605727  0.2239807402932925   F   F   F
  0.1172152184397248  0.5142827502231455  0.2165477034088354   F   F   F
  0.6106976466796681  0.4990875224279421  0.3357323706736821   F   F   F
  0.4405859042574534  0.6473060720964341  0.2208403140964492   F   F   F
  0.1293630279023432  0.4170549180077572  0.2836671815969751   F   F   F
  0.5216915287596180  0.7382613903332143  0.2354971047123655   F   F   F
  0.3188505812255329  0.9820904960160419  0.1994438891360133   F   F   F
  0.3241283331591021  0.8563886690497924  0.1925132287493128   F   F   F
  0.8135629914757700  0.8760103313650731  0.2734499097209451   F   F   F
  0.9819065848950572  0.2481999647327484  0.3147906515304228   F   F   F
  0.9860100610631903  0.0441524680774847  0.2942296132814874   F   F   F
  0.0045091676060878  0.0217994915749884  0.1775729238436625   F   F   F
  0.0981404959310623  0.2985142835139101  0.1279019542587676   F   F   F
  0.5917567384124212  0.7331785005114142  0.2995180762804139   F   F   F
  0.4287867408801844  0.6038262836449064  0.3340147228699593   F   F   F
  0.8037388218783903  0.3275304847105573  0.1646633302731217   F   F   F
  0.0657539969456380  0.2045592208928042  0.2642770544840261   F   F   F
  0.5207488480109035  0.6914692373549016  0.0865562928139028   F   F   F
  0.1554649512793418  0.6150043670655236  0.2526133471536127   F   F   F
  0.5540242230690282  0.1777105877226290  0.2324961521596336   F   F   F
  0.7212134762360165  0.4124256971761113  0.1928829018703269   F   F   F
  0.5109246705499899  0.9501655892674421  0.1241727153584051   F   F   F
  0.2537625669503925  0.8635581877010168  0.1083117015445154   F   F   F
  0.6286151195088081  0.7486902902103481  0.1740898712483485   F   F   F
  0.7425425600483564  0.9064263012847888  0.0787155842355318   F   F   F
  0.6938473350941976  0.8501659793679082  0.2802196387738718   F   F   F
  0.7224485078648044  0.6814387933221795  0.2001405947394090   F   F   F
  0.2224927361260640  0.2833101557800930  0.1834236414582548   F   F   F
  0.1106903508879924  0.0629935832610684  0.1029425515347384   F   F   F
  0.5658228270830890  0.1797822447426611  0.3215410392458793   F   F   F
  0.7825305354697392  0.6697598219167844  0.3474684024701560   F   F   F
  0.2064703477536156  0.2877975385977081  0.2597838182407912   F   F   F
  0.6166101592923781  0.5373984400625531  0.1301233823114103   F   F   F
  0.3314690933352438  0.4678869328826494  0.2116557532079071   F   F   F
  0.3163292149911854  0.3335053568647695  0.1428532968119569   F   F   F
  0.3028204390494764  0.9722057832032647  0.1224040603809513   F   F   F
  0.5002601209531079  0.5872886774864625  0.1255855691096528   F   F   F
  0.8739420387625785  0.4642325375658416  0.3022385735720405   F   F   F
  0.5939847325134266  0.0628258647101134  0.2934540024649266   F   F   F
  0.4621508125071472  0.1397536258344587  0.1854019721631417   F   F   F
  0.4785368422056564  0.7920183276812693  0.3021609194198831   F   F   F
  0.5128438701485649  0.4081361530375531  0.3205066223479847   F   F   F
  0.0986973939598244  0.8450798035871401  0.3026135177128069   F   F   F
  0.3110639289625325  0.4136704330727596  0.2785422051635535   F   F   F
  0.7821576923219453  0.1373846178381370  0.3421575300588913   F   F   F
  0.4919295519775062  0.7023686641046325  0.1615507275751469   F   F   F
  0.9884381103046778  0.8970351501285521  0.1690955692769194   F   F   F
  0.8876054074095947  0.7249254164008221  0.3228787654494312   F   F   F
  0.6137872436007328  0.5767066685231725  0.2716356133510800   F   F   F
  0.7953581697538041  0.8233517713133693  0.1256854490440276   F   F   F
  0.8930302891058304  0.3380250219056222  0.3109810324200453   F   F   F
  0.8219795879842806  0.4598027978349180  0.1628758343250922   F   F   F
  0.6398388268036115  0.2629484974869456  0.2276203448230163   F   F   F
  0.8979836525166149  0.8154009001383713  0.1638887035161645   F   F   F
  0.8714165592071907  0.0919884630644887  0.2969599789854200   F   F   F
  0.4434365978281249  0.9121904362987650  0.3157800388575254   F   F   F
  0.1069173149715112  0.0597618963647406  0.3070034676037636   F   F   F
  0.0357775275663954  0.4270701942434414  0.2293268826421127   F   F   F
  0.5716390290054107  0.8418021646320071  0.2653008542280659   F   F   F
  0.0035061833771906  0.1334235825377803  0.2138650840378773   F   F   F
  0.2176859506062243  0.2848816126457550  0.1063811942149044   F   F   F
  0.4391998393278840  0.8679518675369451  0.1653150691887504   F   F   F
  0.4126458717883779  0.0062321328114905  0.1524911896576029   F   F   F
  0.1247534075882797  0.1264686855311794  0.2161636314043847   F   F   F
  0.1012673543780522  0.9395154945011157  0.1771055605970133   F   F   F
  0.3013253503783346  0.9033714767935450  0.2605766222155026   F   F   F
  0.3610139303128719  0.7783122532202285  0.1399041098248759   F   F   F
  0.5913320166030474  0.0430221392441013  0.2161919732839479   F   F   F
  0.3186607175329570  0.0857313036756722  0.1517247490428204   F   F   F
  0.4120835496709390  0.3544602458211799  0.2500748782033071   F   F   F
  0.5169244610281041  0.2083463401933656  0.1314748633132226   F   F   F
  0.6963682167421013  0.3282449478457465  0.0617280731899967   F   F   F
  0.8421515754849409  0.7076181283315179  0.1492224176531423   F   F   F
  0.8382008378893389  0.6722420635709057  0.2246737522798625   F   F   F
  0.6222469977008629  0.2571107723717247  0.1065076196520280   F   F   F
  0.3796964245952452  0.7683395246016502  0.0661365406605512   F   F   F
  0.4211445178081377  0.0356625349104505  0.3036207047965860   F   F   F
  0.3223317681304394  0.5456210365557652  0.3162116282141127   F   F   F
  0.2457382832572677  0.1248191124899947  0.2141118415864369   F   F   F
  0.7414469503857788  0.5499031464102515  0.1436728358942148   F   F   F
  0.6317498938975632  0.0601132641888356  0.1433260735876303   F   F   F
  0.8161540777526213  0.9628206060767752  0.2176416929443903   F   F   F
  0.1670670008468704  0.3653774141589565  0.3511262616367361   F   F   F
  0.2402341538097374  0.6959546309317162  0.3163974373778302   F   F   F
  0.0454216581383946  0.7206857815737564  0.1515059410942712   F   F   F
  0.6683681461882927  0.6498570235972494  0.1339216688753666   F   F   F
  0.7090287113716371  0.0237612859332614  0.2006091505865086   F   F   F
  0.6479095738467109  0.8623261964165465  0.2075639017248250   F   F   F
  0.4109331051033536  0.3482515191973974  0.0910454938504728   F   F   F
  0.5212882887368622  0.2635720478540691  0.0606264553463802   F   F   F
  0.9128614065397471  0.8814231511863184  0.2285399800148937   F   F   F
  0.5309462659463620  0.3364960067379101  0.1227935152677020   F   F   F
  0.4045085085539313  0.1585123742187164  0.1174962920418139   F   F   F
  0.7704474204095888  0.7701803246180390  0.2448042225469322   F   F   F
  0.6358204246481307  0.9814880901444312  0.0837459193492691   F   F   F
  0.2211097429885456  0.4695567214302727  0.3272377575725329   F   F   F
  0.0562936107454775  0.6793404088887769  0.2230177712388297   F   F   F
  0.8878231718801146  0.9705017207948856  0.2811607859909131   F   F   F
  0.1847685554959497  0.0309317916402279  0.1803759481413323   F   F   F
  0.3363420717291916  0.0917818467613358  0.2625297896265906   F   F   F
  0.0443931038576508  0.6185482599230383  0.2903867359593448   F   F   F
  0.9195718994400650  0.1105132844819323  0.1600119792292389   F   F   F
  0.4483768066127283  0.1429236391050068  0.2621536447560047   F   F   F
  0.1802777281688179  0.1396867266840616  0.1464622544400953   F   F   F
  0.1324586108188370  0.9879650475753152  0.2446353821381777   F   F   F
  0.3189723908866142  0.8856254355906259  0.3362455959483270   F   F   F
  0.2955951746607752  0.1388064412812184  0.0814125567298873   F   F   F
  0.8666814162104899  0.2713733905623741  0.1073312900288670   F   F   F
  0.8921459358066670  0.7669001359907881  0.0906577845608751   F   F   F
  0.1166658699155505  0.7205935890754560  0.2864560224970063   F   F   F
  0.4752316348338397  0.8384937525585627  0.0939522567404154   F   F   F
  0.4350956067158620  0.0129453633558114  0.0740166768769228   F   F   F
  0.2177696973920149  0.8406798739823174  0.3049663274432177   F   F   F
  0.8091800991580698  0.0613917925918841  0.1677935278912770   F   F   F
  0.9457682590915724  0.6711215425068673  0.1871852291489375   F   F   F
  0.3226320888554497  0.2874216715462765  0.2849058124800337   F   F   F
  0.9167623209102942  0.0534809854411549  0.2292337550081243   F   F   F
  0.8004083648486287  0.5635318110729983  0.3074438658781986   F   F   F
  0.3466318768579981  0.6583676342602303  0.2863406706087446   F   F   F
  0.4951907484696818  0.2830807573182668  0.3279872043707996   F   F   F
  0.6628049949980337  0.1169030542937719  0.3465272842901328   F   F   F
  0.9221544470482073  0.5816671265222411  0.2942839355038700   F   F   F
  0.9712669446243396  0.5476000025104213  0.1026504865060502   F   F   F
  0.5126240181317243  0.9833999586242825  0.2655983732307519   F   F   F
  0.4025451179812336  0.6678936031058171  0.1120316284008354   F   F   F
  0.3834847340665490  0.1459111653320804  0.3281447120751153   F   F   F
  0.4790678229948426  0.3682512993399456  0.1871509800039988   F   F   F
  0.0244491720051769  0.5041169481389218  0.1660950778821615   F   F   F
  0.0821792827495429  0.4916680178910156  0.0973270347828645   F   F   F
  0.2099186025777158  0.5795609910961446  0.1858903840682444   F   F   F
  0.9811842319419384  0.2570260404812998  0.1356706552582736   F   F   F
  0.1945150764488872  0.4890076899819604  0.1327378193677120   F   F   F
  0.3669825736144929  0.8946931687656701  0.0763542524617549   F   F   F
  0.3088594666901017  0.5365362354251246  0.1482336000303164   F   F   F
  0.7416269237135396  0.4029683410718334  0.1163477472708294   F   F   F
  0.1559432254149229  0.6972680178747837  0.1167945881855204   F   F   F
  0.5633222486809899  0.6178658004909821  0.3349815862233712   F   F   F
  0.6139869645708913  0.2920163156877678  0.3022601597369459   F   F   F
  0.4550649634070467  0.2502623761353462  0.2185855321338721   F   F   F
  0.2569020090810099  0.1793779412138079  0.2825564755441050   F   F   F
  0.6871973982311843  0.5943556728729220  0.3324387519443945   F   F   F
  0.5349097037472248  0.3297424483238132  0.2502114295518609   F   F   F
  0.3959418574654379  0.3610569877995786  0.3263897417900878   F   F   F
  0.2992293688423544  0.2102696266918045  0.1434547050135038   F   F   F
  0.6023283640368433  0.3911292256228478  0.1773566820698207   F   F   F
  0.5391504927665522  0.5123233966321408  0.0693689617504489   F   F   F
  0.2383466420282971  0.3918618684731854  0.2187190445604230   F   F   F
  0.6443411233370071  0.3836283971370946  0.2497164346258103   F   F   F
  0.0375149240366994  0.9640053142778910  0.1124137067610818   F   F   F
  0.8543263113509667  0.5857475950842996  0.1705668840799675   F   F   F
  0.6916296413911311  0.5714553223259315  0.0730686585244840   F   F   F
  0.6334821525676801  0.4977160504878171  0.2143253211497864   F   F   F
  0.0710558504159380  0.1774296443049437  0.1170876415604170   F   F   F
  0.9065773488543840  0.2668037272561605  0.3761411807770969   F   F   F
  0.8377251770339385  0.1155091409646474  0.1013379467775692   F   F   F
  0.5004735722230436  0.0798392872772524  0.1227766272660560   F   F   F
  0.6313582139822884  0.9512540870748580  0.2628132200629878   F   F   F
  0.2291572012215752  0.6008446449143037  0.1088893388536647   F   F   F
  0.0687040928333715  0.2293303168671130  0.1884192696450668   F   F   F
  0.7635264476376378  0.9420048079420695  0.1512576258789053   F   F   F
  0.8236615580817030  0.1934306036982605  0.1615880806489898   F   F   F
  0.2283486644331063  0.2631645679707901  0.3344363439631195   F   F   F
  0.0288939645889315  0.1101193461053427  0.3559006084060385   F   F   F
  0.7263983760986861  0.0626307960463208  0.0939540469941562   F   F   F
  0.3061727339498503  0.4104837365602023  0.0808794045244881   F   F   F
  0.7771140345541312  0.7878763278494461  0.3223019056410550   F   F   F
  0.0741857105640094  0.6039696052477694  0.1299929340614341   F   F   F
  0.8632548099395052  0.2158601034567482  0.3125827234065426   F   F   F
  0.1265233647038499  0.3480938723635418  0.2169977703670725   F   F   F
  0.0441033644525533  0.3277596290243778  0.2735941010498095   F   F   F
  0.6599443362316961  0.1624486574588246  0.2724109050097283   F   F   F
  0.2304795411010190  0.5081593901565071  0.2485208407705741   F   F   F
  0.7422229722634981  0.6579837293445436  0.2743900927155067   F   F   F
  0.7442684435528903  0.2512508926701642  0.1158639358989930   F   F   F
  0.0104476623871790  0.5017812601838401  0.3101449085658530   F   F   F
  0.2204743938946052  0.5877791029915684  0.3542123212479353   F   F   F
  0.3202094745091983  0.7838056671366047  0.2865135147717695   F   F   F
  0.1038681360942419  0.2621343925274076  0.3281667414131562   F   F   F
  0.4104408926756236  0.5535922140641460  0.2629977006550064   F   F   F
  0.7463523627726971  0.0213704102184877  0.3541619552109339   F   F   F
  0.4182537441261402  0.5385046432263962  0.1846519157184616   F   F   F
  0.0494209316206309  0.6914696185038736  0.0759880482589423   F   F   F
  0.9981430154469138  0.5432281080354571  0.2368459582416307   F   F   F
  0.5203885524185736  0.4615646179635249  0.1400402556912184   F   F   F
  0.9916909205981526  0.7859530677484798  0.2078939597518144   F   F   F
  0.1710331003424841  0.9540682454912002  0.3129027977042256   F   F   F
  0.5594263714177004  0.8447193736012082  0.1517909902546961   F   F   F
  0.2208221691848991  0.0579085904667451  0.2789670363451293   F   F   F
  0.3460151768186606  0.7272721329695671  0.3527727875634739   F   F   F
  0.2926382437456567  0.4980746014450403  0.3859461521839620   F   F   F
  0.4752887915383397  0.3548028413819040  0.3879646187186481   F   F   F
  0.1569461923502260  0.2712956815988221  0.3990102011775178   F   F   F
  0.5917405461051004  0.2629735721625508  0.3773278876916564   F   F   F
  0.7287895356910710  0.1043578294894019  0.4115358164015532   F   F   F
  0.9020973277466453  0.1347509065832853  0.3672824750104695   F   F   F
  0.8361991815878866  0.7623154541537147  0.3889849405056864   F   F   F
  0.8802051101416879  0.5409656361647137  0.3645372682940078   F   F   F
  0.8717501242682815  0.4083009895467669  0.3719686446445536   F   F   F
  0.7786766634775333  0.3929232002848835  0.3165122101750768   F   F   F
  0.0087223941582479  0.5378613461506419  0.3827249911263166   F   F   F
  0.0001527937199555  0.4133474107005171  0.3668197687345369   F   F   F
  0.5420970684084168  0.8634568625555374  0.3539158837049001   F   F   F
  0.0845696534716467  0.7623652795713269  0.3577926620816214   F   F   F
  0.1518202063214034  0.8788667184409888  0.3705649377365674   F   F   F
  0.0365414087172127  0.9815193746279078  0.3512000509837492   F   F   F
  0.4276056770340162  0.8222459090538408  0.3706401860296182   F   F   F
  0.5207602965077527  0.9922514332788523  0.3448756212374064   F   F   F
  0.6603595939054117  0.4455170928118832  0.0615928429391275   F   F   F
  0.7775209360674253  0.4204176032007823  0.0418891366415579   F   F   F
  0.6879314508128758  0.2039012672390399  0.0520282996195576   F   F   F
  0.1288268251277884  0.2878385492085016  0.0519910983786573   F   F   F
  0.1815016883518865  0.4957365068253168  0.0534900314431326   F   F   F
  0.4366644495006540  0.8516999183033533  0.0197294205531335   F   F   F
  0.2070862273353526  0.6745342069947995  0.0459770685131460   F   F   F
  0.2654653382555452  0.9499362858610070  0.0495105310100072   F   F   F
  0.9058235880539129  0.5802787670792640  0.0393701877881085   F   F   F
  0.9108327986316596  0.4595597413372161  0.0586918669488128   F   F   F
  0.8230707856240755  0.0096994249461986  0.0575102305444091   F   F   F
  0.7826771387901275  0.1230961759621039  0.0340143961546460   F   F   F
  0.1689182224689958  0.1624307860200176  0.0700270891448653   F   F   F
  0.0251084146495870  0.0298232458416763  0.0467623304679776   F   F   F
  0.1299708611198085  0.9671126771012766  0.0574010304537822   F   F   F
  0.9594344832301402  0.2796145796033258  0.0582719328127794   F   F   F
  0.9457430498329344  0.3694174115789508  0.1146371097325556   F   F   F
  0.6140856061435969  0.1037511708892183  0.0697590395595640   F   F   F
  0.3539166945219137  0.3825427089264721  0.1146736845340968   F   F   F
  0.2181046974074548  0.6712944448001750  0.0932354776026543   F   F   F
  0.3137201462978467  0.7171202685131135  0.3095032072059070   F   F   F
  0.3565378302608977  0.7282297655390977  0.1047207572499005   F   F   F
  0.2916025962784872  0.8541056517172549  0.2968157697853968   F   F   F
  0.4480554684688158  0.5720269010541443  0.2230093164591409   F   F   F
  0.3981095558532033  0.1044707270159151  0.2890491908758861   F   F   F
  0.6293335948327439  0.1869677498383240  0.2310928494917093   F   F   F
  0.9166044449849053  0.0405515014147610  0.2762655826888931   F   F   F
  0.0735917595632145  0.7739948850641696  0.3102972177057879   F   F   F
  0.8199911043406516  0.7364415547687315  0.3452859875314758   F   F   F
  0.8158795549637716  0.5318687614228850  0.1460186581317373   F   F   F
  0.4138185905090168  0.8370971384270121  0.0642913262857121   F   F   F
  0.5338803675334844  0.3913102673544273  0.1567087449361750   F   F   F
  0.4686613885847208  0.3527717572297817  0.3404259458123420   F   F   F
  0.6557969244418658  0.6774614335989426  0.1779453219394327   F   F   F
  0.4669104743137424  0.7143879059300104  0.2064036892831780   F   F   F
  0.7737133028509291  0.3987721729167433  0.1592675411169608   F   F   F
  0.8556725061347663  0.7784504696226193  0.1326000256053916   F   F   F
  0.8577662425074521  0.9230406492922185  0.2490624352368798   F   F   F
  0.8696983308803752  0.5373392177896577  0.3167619037356175   F   F   F
  0.6209217407308643  0.1306154361298795  0.3082469531008201   F   F   F
  0.7756497743106507  0.9974429952004229  0.1838166734675823   F   F   F
  0.5962210044650860  0.5622496288299104  0.2266057400740351   F   F   F
  0.6185908387354360  0.5691949400974252  0.3186503616022165   F   F   F
  0.9617404624437782  0.0788772639704405  0.1945728230685688   F   F   F
  0.3297373091451732  0.1478523109261971  0.1246296512333487   F   F   F
  0.2899868118601532  0.9148551154894946  0.2141761372201856   F   F   F
  0.7455385286583009  0.8811089359383359  0.1242727935709169   F   F   F
  0.7680222543610711  0.6954633490148225  0.2365764896234666   F   F   F
  0.9488010362058290  0.8453428193153698  0.1933463513437275   F   F   F
  0.7302928480681956  0.0943930902365437  0.3640117888711103   F   F   F
  0.1594129596072449  0.8806800062237699  0.3228756609439998   F   F   F
  0.0745901024416611  0.0068928323534365  0.0803148603996746   F   F   F
  0.4696295642522443  0.3241765912482464  0.2256617530078771   F   F   F
  0.0496968865078813  0.2601480612654612  0.2950615975740050   F   F   F
  0.4792150234768329  0.1779011805855006  0.2249142210483583   F   F   F
  0.1993110041328094  0.3270616077549420  0.2191972550591288   F   F   F
  0.0932924049695814  0.6581119831446145  0.2624379150142673   F   F   F
  0.1329636340614684  0.1350580844800930  0.1087140340990160   F   F   F
  0.0437459502941877  0.4970748995505332  0.2116075152986596   F   F   F
  0.3841954448956884  0.8180282883361514  0.1773428093190077   F   F   F
  0.4734413055616002  0.9811957708536312  0.3070959617212665   F   F   F
  0.6362468738098670  0.8762784831180284  0.2540754133937355   F   F   F
  0.2643016839978714  0.2778449504576059  0.1436711511659894   F   F   F
  0.6508277990501199  0.0544419382545200  0.0972096829495328   F   F   F
  0.5831479945020988  0.0098970537116045  0.2588292216364891   F   F   F
  0.1542028325236089  0.4661271599907550  0.0942217360918960   F   F   F
  0.5435465968566007  0.5251156608532170  0.1162957375076417   F   F   F
  0.4649301667805901  0.0123883117233490  0.1180799188556350   F   F   F
  0.8102300757675138  0.2612245299996303  0.1386122316803124   F   F   F
  0.6890979316681296  0.2611852675094752  0.0837999753204954   F   F   F
  0.5665354237368518  0.2545257064354303  0.3325085978737405   F   F   F
  0.4731599701896414  0.8464934421432275  0.3362083659083765   F   F   F
  0.0659474745739885  0.1739681573655645  0.2209467147012916   F   F   F
  0.1583753214897499  0.0155486042822304  0.2860588739383374   F   F   F
  0.8461463574798032  0.1216398131936103  0.1488225848913132   F   F   F
  0.9943326043464538  0.5619920234783535  0.2828515791489252   F   F   F
  0.2958889364641379  0.9187829581515530  0.0887383920797191   F   F   F
  0.8547059755163318  0.1443171234145382  0.3293332352540759   F   F   F
  0.2630280760909756  0.5278549211939065  0.3437628911286552   F   F   F
  0.0325673084733822  0.9566570700039350  0.1598695056435275   F   F   F
  0.1590675726315780  0.9679107843118189  0.2019266071079642   F   F   F
  0.2639271451482088  0.1130107821552144  0.2599214670140313   F   F   F
  0.0385681176795742  0.5368943598088052  0.1240941378270506   F   F   F
  0.7925689922260304  0.0756659377261570  0.0720408943273227   F   F   F
  0.3591411074098261  0.3546259375819787  0.2845723005660190   F   F   F
  0.0816393388103478  0.6782849953391477  0.1191037177149994   F   F   F
  0.1840158294818366  0.1057809408048911  0.1891378311366836   F   F   F
  0.2763876769532274  0.4469260615193136  0.2407064010108826   F   F   F
  0.1500193739193065  0.3156018180845450  0.0946264937702210   F   F   F
  0.5403466017271725  0.7746071770037091  0.2761748455313011   F   F   F
  0.2543020944830658  0.2535905649689880  0.2901659537395673   F   F   F
  0.7201199285730979  0.3993785670566083  0.0704452711124830   F   F   F
  0.8706185114948184  0.6586134994899240  0.1821832060763668   F   F   F
  0.4963764370548276  0.8757597143288081  0.1342140915211445   F   F   F
  0.3778471241745791  0.5912701179315647  0.2995250816432886   F   F   F
  0.6507054286707614  0.4236106843844567  0.2084683157171057   F   F   F
  0.8532848672190880  0.3994806997092297  0.3246287583322101   F   F   F
  0.7635974848134524  0.8208926829869512  0.2802369938894458   F   F   F
  0.6285461498115197  0.8248499009932715  0.1678584764725386   F   F   F
  0.6097528804627075  0.3165367702842303  0.2569609007865168   F   F   F
  0.4724251769009129  0.1470852414927961  0.1383106554329672   F   F   F
  0.5472424375871725  0.2655339738360922  0.1054267764202024   F   F   F
  0.4787412713170554  0.6607632479971528  0.1216622370984197   F   F   F
  0.0314009314364725  0.4794438559696630  0.3537820177716426   F   F   F
  0.9123350182265781  0.2690742651101061  0.3278412204086365   F   F   F
  0.0392798919807618  0.0488864793288712  0.3283637587726673   F   F   F
  0.3371344472952487  0.0118225960844924  0.1568426729173140   F   F   F
  0.3600762135401183  0.4947842161645184  0.1714285854050317   F   F   F
  0.1628968322453801  0.2894371167742520  0.3528747939883488   F   F   F
  0.1558022557024685  0.4303024035550109  0.3279603784995544   F   F   F
  0.6798590078035431  0.5771994354952881  0.1207156503624986   F   F   F
  0.2349726813132875  0.5512085933273383  0.1442386362946166   F   F   F
  0.1792255634196209  0.5543607489132114  0.2266793302580723   F   F   F
  0.0083974887012488  0.7148261794729791  0.1933354752723702   F   F   F
  0.7525728920983994  0.6214591451849429  0.3156170601894033   F   F   F
  0.9391374275502855  0.2954455555351956  0.1035815167703831   F   F   F
  0.6494887018627367  0.0676256492789307  0.1888528460039680   F   F   F
  0.0845805277225651  0.3805595929951195  0.2513451040335113   F   F   F
  0.9098597823564418  0.5321078909251966  0.0764395615167146   F   F   F
  0.0544638048668276  0.2408476951606744  0.1422747992248290   F   F   F
  0.7320787041263301  0.5844453616487755  0.0630131504185627   F   F   F
  0.5685997128949936  0.4807810620521522  0.0598021617033311   F   F   F
  0.3220496297722235  0.4039758373221076  0.0545729251729057   F   F   F
  0.4530770417004177  0.3503127113650706  0.1023400257265976   F   F   F
  0.4735750988803957  0.6080578914408790  0.3285938677700884   F   F   F
  0.5606932957017818  0.6211911383032742  0.3638327254886562   F   F   F
  0.5735071696515845  0.4729141027193506  0.3320138051884385   F   F   F
  0.2048167058744212  0.7155704328545909  0.3030094074756775   F   F   F
  0.3451328750029958  0.6932913288552882  0.3720579178296006   F   F   F
  0.2259562027629869  0.6278745461456126  0.3397040715162376   F   F   F
  0.2813223952417232  0.4543498622590292  0.3896270439889307   F   F   F
  0.5207119439842245  0.4006064393906072  0.2927172400009468   F   F   F
  0.4587698829563962  0.3915073324992520  0.4015161398860769   F   F   F
  0.1458298886854266  0.2284927766378217  0.4052166696675101   F   F   F
  0.5788314089470390  0.6944259427015567  0.3127269269262598   F   F   F
  0.5685573798256272  0.2924502223146774  0.3935114210406638   F   F   F
  0.3988698975877298  0.1885622082310690  0.3284025580604606   F   F   F
  0.7036843226199068  0.1386917623121491  0.4213627807428395   F   F   F
  0.9031939838889471  0.1716290884950524  0.3843142886677668   F   F   F
  0.8952073486983636  0.6842115963383861  0.3109259132639721   F   F   F
  0.8092788358720000  0.7944147967754134  0.3997105855942635   F   F   F
  0.9231949874794196  0.5477955752853205  0.3740435459195197   F   F   F
  0.7555760453226839  0.3559167469939695  0.3241503336115059   F   F   F
  0.8632306688723119  0.4509979973858336  0.3812123323997127   F   F   F
  0.0237193418274018  0.5376103413891542  0.4095368167040121   F   F   F
  0.9541848979072327  0.4118705114212489  0.3703773460554487   F   F   F
  0.9649331429904677  0.7615862986391093  0.3106323025614870   F   F   F
  0.0849683887959074  0.7194722974227261  0.3670189126508063   F   F   F
  0.1328164057141805  0.8400812062203755  0.3798883651601770   F   F   F
  0.9848790222881547  0.1190664820042429  0.3623751991526021   F   F   F
  0.0707609730871042  0.9691019650793393  0.3682156029896504   F   F   F
  0.5485040962871608  0.9084650371258221  0.3574877854199698   F   F   F
  0.3956200257012554  0.7902934746430148  0.3648247303988015   F   F   F
  0.3608175156119060  0.9038577613659911  0.3348861694280600   F   F   F
  0.7273432208919886  0.9890963693401673  0.3700728567156446   F   F   F
  0.5514953460710359  0.0252639941295598  0.3408094277068727   F   F   F
  0.9239701540843726  0.3011334417797542  0.3911711433521674   F   F   F
  0.8201360626643677  0.4247968755113334  0.0515674217281017   F   F   F
  0.6723519469656907  0.4900030480726087  0.0600245515929672   F   F   F
  0.7267412877921231  0.1832518331858992  0.0430724484210430   F   F   F
  0.3125595742359764  0.1057898365818701  0.0649499691545046   F   F   F
  0.1406987980428482  0.2435537167077300  0.0494098109417678   F   F   F
  0.2257227557986852  0.4882261447098415  0.0490451211282803   F   F   F
  0.2537253492562925  0.8212013149623232  0.0982315953850517   F   F   F
  0.4782224068854148  0.2761552148023441  0.0560829970726360   F   F   F
  0.4557004336706001  0.8184049181493265  0.0046687068821569   F   F   F
  0.1667746309280034  0.6613334887442761  0.0359556436642947   F   F   F
  0.4143401523255790  0.9745892171220021  0.0655240567610775   F   F   F
  0.0141497540775291  0.7201423651949099  0.0766496900177032   F   F   F
  0.8877704555649544  0.8003928086554737  0.0716990825822847   F   F   F
  0.7033871954960276  0.9305040174354602  0.0746036196416142   F   F   F
  0.5236296469835651  0.7368790408521591  0.0869663438111132   F   F   F
  0.2209458286714252  0.9608552581530105  0.0517156702592416   F   F   F
  0.9314715477550806  0.6176265813181061  0.0407464934801212   F   F   F
  0.9358755235572076  0.4526727683658933  0.0353430675312225   F   F   F
  0.5971970152960324  0.9635685982073738  0.0941792114399718   F   F   F
  0.7992332695535325  0.9715913316484261  0.0641691254624988   F   F   F
  0.7813765979726099  0.1034521453334989  0.0084497288693228   F   F   F
  0.2149083353011605  0.1570739702689821  0.0706612490446261   F   F   F
  0.9826152062998403  0.0393452291559271  0.0547374067652697   F   F   F
  0.0034952707554368  0.2833826638815324  0.0516030610128340   F   F   F
  0.9331242614842878  0.3997682999601651  0.0946367346560919   F   F   F
  0.1149494911841131  0.9364500834076281  0.0386884616595751   F   F   F
  0.6368361879267326  0.1421242339835729  0.0618480268977279   F   F   F
  0.5694239179155716  0.6363859685156257  0.4543095377210165   T   T   T
  0.5600554725200126  0.4592114121595898  0.4969828360518846   T   T   T
  0.3466927480703887  0.6590319730109897  0.4537014160445381   T   T   T
  0.3298349428079845  0.4443853224241110  0.5015087945274885   T   T   T