 SiO2-Mo7S16                            
   1.00000000000000     
    21.3948993682999991    0.0000000000000000    0.0000000000000000
     0.0000000000000000   21.3948993682999991    0.0000000000000000
     0.0000000000000000    0.0000000000000000   34.1699981689000012
   O    Si   H    Mo   S 
   236   102    64     7    16
Selective
Direct
0.2824384985673616 0.7117177481234712 0.0997854691269454  F  F  F
0.6104323701906703 0.6257204255606210 0.2003866194941513  F  F  F
0.1491643537404442 0.3900106735091434 0.0911661775941809  F  F  F
0.3790312654453369 0.4424268914049115 0.1359259069751741  F  F  F
0.6759383312348370 0.8497075870857772 0.1342264910461689  F  F  F
0.1019340637431790 0.4644257671166054 0.3518769248049461  F  F  F
0.0026628989609052 0.7655743064371375 0.2948227293324818  F  F  F
0.6574231604602268 0.1428794347597870 0.1958015785855021  F  F  F
0.2143268138569027 0.9161709519173387 0.2058340888541904  F  F  F
0.8431363074234551 0.5333395434066581 0.1013955314944833  F  F  F
0.4110558341980063 0.7685906457598641 0.2078525311692721  F  F  F
0.5170280987750986 0.5526104662726585 0.2236366534794647  F  F  F
0.1148045107039844 0.5100071756246031 0.2136715881389698  F  F  F
0.6083352903664804 0.4968051514885764 0.3331053695657533  F  F  F
0.4332337332866022 0.6466538392223595 0.2185405695833375  F  F  F
0.1141355635781023 0.4139931715255815 0.2787736210756551  F  F  F
0.5178713824452810 0.7333852343057937 0.2369708984266237  F  F  F
0.3175955652339389 0.9832412260734543 0.1991085531821046  F  F  F
0.3229760244337830 0.8573658543225072 0.1918601018722030  F  F  F
0.8121489984052542 0.8741278700253859 0.2721095061577552  F  F  F
0.9745434561401577 0.2466878899621971 0.3112489766904766  F  F  F
0.9865536651362935 0.0416246012617188 0.2919303850454489  F  F  F
0.0027651070175551 0.0199537152533763 0.1746378103613837  F  F  F
0.0979304974173571 0.2958282974236296 0.1264710395105749  F  F  F
0.5912009270421503 0.7324509627439522 0.2994777372614975  F  F  F
0.4187634598325919 0.5797937603498577 0.3396601548824191  F  F  F
0.8002584131169551 0.3275815227261912 0.1647432425111980  F  F  F
0.0615895475248255 0.2031357761920410 0.2625210856050006  F  F  F
0.5208490633932401 0.6905446830650680 0.0871570982470312  F  F  F
0.1515151579016938 0.6125988729996531 0.2487809897082186  F  F  F
0.5516034346754232 0.1771430788484397 0.2317540363455185  F  F  F
0.7170209307965013 0.4139815064661537 0.1909619213166121  F  F  F
0.5093089004328388 0.9503214427214969 0.1230774981849872  F  F  F
0.2532799177408306 0.8639030675543786 0.1085701280906058  F  F  F
0.6273922203319808 0.7489157220026763 0.1738392559924846  F  F  F
0.7415224849224668 0.9058943514228995 0.0781529974308650  F  F  F
0.6920836153046608 0.8493157484032330 0.2794484910611020  F  F  F
0.7209124916037518 0.6806339114745693 0.1994938804215369  F  F  F
0.2229263953015948 0.2866782332832180 0.1802199420386078  F  F  F
0.1133996966595046 0.0610673705744279 0.1017073973370421  F  F  F
0.5635383369264723 0.1831248458565790 0.3202393939802032  F  F  F
0.7804898123657439 0.6692930282729693 0.3462369402111821  F  F  F
0.2038522401514457 0.2814266625311790 0.2559253062549139  F  F  F
0.6146809624800075 0.5371702831939085 0.1292715187311417  F  F  F
0.3292159824609938 0.4560627192704317 0.2060205565941988  F  F  F
0.3161479523169642 0.3355685121031031 0.1383713059874930  F  F  F
0.3026288803248463 0.9723431722382865 0.1222981091152583  F  F  F
0.4983086249661683 0.5869566426560274 0.1261393744769835  F  F  F
0.8722573546564502 0.4629301478620803 0.3048103318357918  F  F  F
0.5920613808922129 0.0638417726414269 0.2930253308909278  F  F  F
0.4606073717764596 0.1379125327308661 0.1847901362684467  F  F  F
0.4784195480820271 0.7919279073910689 0.3025947468666105  F  F  F
0.5121233727238574 0.4128773485756644 0.3123950341255441  F  F  F
0.1025464371917182 0.8416685080103060 0.3014502354713944  F  F  F
0.3104578121303970 0.4165231605164398 0.2761426097385369  F  F  F
0.7795453716201266 0.1326196236674437 0.3390859701952231  F  F  F
0.4910353301296312 0.7020212798985922 0.1619410681837893  F  F  F
0.9877928106797665 0.8955754961758641 0.1668329864485207  F  F  F
0.8861728920567301 0.7262914558732639 0.3244370377931797  F  F  F
0.6093731093478557 0.5785164437492704 0.2715054275218959  F  F  F
0.7922456000483133 0.8221608249456240 0.1257612177139756  F  F  F
0.8837126291211091 0.3360889946576007 0.3067381878990986  F  F  F
0.8203218451160468 0.4592585405303442 0.1626946643514761  F  F  F
0.6364508410931777 0.2630405977567244 0.2258918777210214  F  F  F
0.8991131949253589 0.8136212961502600 0.1592570835939062  F  F  F
0.8712684713151171 0.0886630935702634 0.2952619512973564  F  F  F
0.4435008437854376 0.9123625106381807 0.3159914826086692  F  F  F
0.1068864071262137 0.0576276097706005 0.3078767723348839  F  F  F
0.0297900824565374 0.4235627990725332 0.2202788633599102  F  F  F
0.5704492507184010 0.8392007827620097 0.2629290417832167  F  F  F
0.0028961759908288 0.1296685430905149 0.2125769917625694  F  F  F
0.2170146670118221 0.2863594036730360 0.1031879339162590  F  F  F
0.4377377446626824 0.8692453684911492 0.1647858909424733  F  F  F
0.4119018081167714 0.0075188786523389 0.1522787359203870  F  F  F
0.1244989676037027 0.1261515198710621 0.2159263612475751  F  F  F
0.1002391474699672 0.9383358264020604 0.1773452532804690  F  F  F
0.3037727173923723 0.9045374647890424 0.2603733329453384  F  F  F
0.3605142501677097 0.7788912299547137 0.1392887088913301  F  F  F
0.5896822280141878 0.0429172213643214 0.2160570920611777  F  F  F
0.3170078367407447 0.0866068141610631 0.1509132822458756  F  F  F
0.4074185740666672 0.3513446183709752 0.2478173146074601  F  F  F
0.5158717461663000 0.2081258981156916 0.1314129848103568  F  F  F
0.6960283991679596 0.3271876814147682 0.0611262397749310  F  F  F
0.8390515510448063 0.7065973186933938 0.1485181981046434  F  F  F
0.8370976819226803 0.6713185468678855 0.2239473473458226  F  F  F
0.6206070617212247 0.2569623062880502 0.1055144039955263  F  F  F
0.3804058028168406 0.7681418640726344 0.0654700461360292  F  F  F
0.4214611139419137 0.0359717395236255 0.3042463873662810  F  F  F
0.3085910376843565 0.5503431317957713 0.3104150974700999  F  F  F
0.2450415179319710 0.1235514761550540 0.2133983291762893  F  F  F
0.7393825836567068 0.5491417830851576 0.1436813826948541  F  F  F
0.6296457084309004 0.0583336431606085 0.1429174630515547  F  F  F
0.8139725905299906 0.9624513186395685 0.2172449584005409  F  F  F
0.1719660517383555 0.3662563874310216 0.3412865655737478  F  F  F
0.2459698357607500 0.6995728251303364 0.3067752031580990  F  F  F
0.0437804128042123 0.7208764698775919 0.1495871702725530  F  F  F
0.6666232148025919 0.6495228483664021 0.1334260660958929  F  F  F
0.7069735930272716 0.0230597453816743 0.2003681029453844  F  F  F
0.6474840156043594 0.8627670943472601 0.2066629060045134  F  F  F
0.4105281661613529 0.3507945769546582 0.0860955287066038  F  F  F
0.5194073982845090 0.2610772071474984 0.0598797305521298  F  F  F
0.9093870856686852 0.8793698910984242 0.2251757470514300  F  F  F
0.5289852374312984 0.3360127204407151 0.1213226127601727  F  F  F
0.4038183590900457 0.1585430853374158 0.1169978391341785  F  F  F
0.7683686492447058 0.7676131481908326 0.2454693239246914  F  F  F
0.6337200009117296 0.9802345057222652 0.0831423939905787  F  F  F
0.2058596419492018 0.4767841732347246 0.3129335478731902  F  F  F
0.0531368232059809 0.6779936119606723 0.2209891120876945  F  F  F
0.8881860574991388 0.9672639961523171 0.2795981250396989  F  F  F
0.1833436191591745 0.0299597714768164 0.1799438790283814  F  F  F
0.3363574011923426 0.0878405241720322 0.2607476715219991  F  F  F
0.0413611817594330 0.6169479904684120 0.2881056374669013  F  F  F
0.9176280505137625 0.1095531800553069 0.1591256104434442  F  F  F
0.4457532478043567 0.1431822163265050 0.2616529756847707  F  F  F
0.1794471826502259 0.1389725828102441 0.1458743512466200  F  F  F
0.1312592820052513 0.9880590956702210 0.2446157581244660  F  F  F
0.3198952599549933 0.8907075600657530 0.3370341582292170  F  F  F
0.2959256035392362 0.1374108857686696 0.0798502127346511  F  F  F
0.8646006788777377 0.2716559412399107 0.1081012074737515  F  F  F
0.8841139753099087 0.7631115412961830 0.0872587139081059  F  F  F
0.1144930952284821 0.7180890282874745 0.2839939553042499  F  F  F
0.4747808834601917 0.8383981019975442 0.0935764861856654  F  F  F
0.4331780082953447 0.0135888078849117 0.0735086763895363  F  F  F
0.2223520571452688 0.8392210757523265 0.3048271413548692  F  F  F
0.8070293357251095 0.0612109411169438 0.1677527343932111  F  F  F
0.9438066989852990 0.6707674119785921 0.1846039823265271  F  F  F
0.3176233237328798 0.2899749677889735 0.2864544817487405  F  F  F
0.9161688002246415 0.0496147746738722 0.2273455801910188  F  F  F
0.7991887097276118 0.5616971842011497 0.3085252732843036  F  F  F
0.3590052470385244 0.6616050700296547 0.2920655470967932  F  F  F
0.4970693279723006 0.2899884088080966 0.3316399158756205  F  F  F
0.6594678973754948 0.1195724984284806 0.3459819059765242  F  F  F
0.9194079950807963 0.5792805887424902 0.2916234524768149  F  F  F
0.9694354840569928 0.5497697711584035 0.0982507328760160  F  F  F
0.5115434638996277 0.9833166736202813 0.2654287861503043  F  F  F
0.4020084913681031 0.6681186729028148 0.1119519386039160  F  F  F
0.3806474968025193 0.1426760221354360 0.3281244962213912  F  F  F
0.4749360045091122 0.3674627037013384 0.1851432855633199  F  F  F
0.0209230578809577 0.5089376790959348 0.1626120860549124  F  F  F
0.0798458974452468 0.4925146855613166 0.0943900061284194  F  F  F
0.1998059143607162 0.5823367121148443 0.1797627445498295  F  F  F
0.9805784629920529 0.2549295918968488 0.1333271603326006  F  F  F
0.1937632060881354 0.4887044702332404 0.1281031224239200  F  F  F
0.3664980244996812 0.8944736021575552 0.0764011699857205  F  F  F
0.3045572949912132 0.5380905662670505 0.1492280019142984  F  F  F
0.7414906101971541 0.4034012784294473 0.1148825301370272  F  F  F
0.1567996397441261 0.6979199555637330 0.1170446898581733  F  F  F
0.5626705109166943 0.6159351608396260 0.3373737182485949  F  F  F
0.6125031530316267 0.2943709617174990 0.3004992646014630  F  F  F
0.4527662850796991 0.2488732204098698 0.2164930175031332  F  F  F
0.2622149298480322 0.1781490227997468 0.2810933190385234  F  F  F
0.6855773377001888 0.5926291655774790 0.3319761845777119  F  F  F
0.5310835838950141 0.3291798006930874 0.2485004639764118  F  F  F
0.3962467218435256 0.3641275115466441 0.3237018492178311  F  F  F
0.2984975833925341 0.2119037843058127 0.1407744088487563  F  F  F
0.5979014990776053 0.3918819263117226 0.1764827181497018  F  F  F
0.5371108794093624 0.5146051072824007 0.0683975267386300  F  F  F
0.2295741762899333 0.3915481060526499 0.2211585805285049  F  F  F
0.6404882238512042 0.3842966748646819 0.2478956147187852  F  F  F
0.0406541819488100 0.9617881645916586 0.1108604032827894  F  F  F
0.8526632705110263 0.5849133833277617 0.1700106375928118  F  F  F
0.6915180604329255 0.5708169277697444 0.0729038812133094  F  F  F
0.6291228465272017 0.4989250762605820 0.2138730418831306  F  F  F
0.0706567776702797 0.1751036538335084 0.1146839511230098  F  F  F
0.9002120013544407 0.2675988242471077 0.3722362507961197  F  F  F
0.8352351847625070 0.1153740646855601 0.1012937215134456  F  F  F
0.4999682200482250 0.0797497643456916 0.1220751724450931  F  F  F
0.6292099013761298 0.9503747523277178 0.2626898438218176  F  F  F
0.2293129814913757 0.6008393928360540 0.1042814421814161  F  F  F
0.0666774438863428 0.2260715249393082 0.1862333219416936  F  F  F
0.7619293339713907 0.9415144046153767 0.1508114213108748  F  F  F
0.8216124660789711 0.1929980521617996 0.1618363663472962  F  F  F
0.2193458886719075 0.2563716995185905 0.3312956434464485  F  F  F
0.0257653696501099 0.1119189271093586 0.3529468780443690  F  F  F
0.7245719934368150 0.0616025047781450 0.0937684419334555  F  F  F
0.3042568371235168 0.4094700525732176 0.0752435945310344  F  F  F
0.7750962929937208 0.7882937934636147 0.3226046210805184  F  F  F
0.0725510812972967 0.6057864743528172 0.1253934486218516  F  F  F
0.8576475654288224 0.2126416055610775 0.3078721018327968  F  F  F
0.1213934178694103 0.3417527348531920 0.2139275907029953  F  F  F
0.0302976340695765 0.3246278208314686 0.2654507477001575  F  F  F
0.6575150318604795 0.1631359756276117 0.2712464877971391  F  F  F
0.2328861840134534 0.5115826601585926 0.2398209878586380  F  F  F
0.7410235162974592 0.6541693267146367 0.2733657826628056  F  F  F
0.7420047023653733 0.2504936800798875 0.1162440993122614  F  F  F
0.0073942532921867 0.5008864578748770 0.3092140105943503  F  F  F
0.1999972358904545 0.5949814562809432 0.3383384932741354  F  F  F
0.3300940686394606 0.7884287497396413 0.2886575813150598  F  F  F
0.0953788210183532 0.2706370464952905 0.3231965883549981  F  F  F
0.4071011396893203 0.5539139757212744 0.2633123414223266  F  F  F
0.7377001462819180 0.0193998187671852 0.3530425003766177  F  F  F
0.4141214857706618 0.5353125040602829 0.1850840126428777  F  F  F
0.0538559987622276 0.6978717510658440 0.0734630292759783  F  F  F
0.9963387166828104 0.5397477409720327 0.2350640016262351  F  F  F
0.5173429748776570 0.4612998574899002 0.1382643398818375  F  F  F
0.9895149925924746 0.7850002239647302 0.2060886685572290  F  F  F
0.1720243176074382 0.9517650758837380 0.3120679959752242  F  F  F
0.5576878172588493 0.8449163058600661 0.1518054504627060  F  F  F
0.2203351944276618 0.0573083637700449 0.2789336613090589  F  F  F
0.3412206947454759 0.7328857383018467 0.3561323986297398  F  F  F
0.2667513132443700 0.5076855496859047 0.3772003510778063  F  F  F
0.4767387524603880 0.3806858228614165 0.3831661363125084  F  F  F
0.1480089925019320 0.2794108582930274 0.3941359771918101  F  F  F
0.5980423107568321 0.2628728907877200 0.3757408853428026  F  F  F
0.7274027324604270 0.1042231382674685 0.4099199322943714  F  F  F
0.8994168514599673 0.1366685622965905 0.3646196744259525  F  F  F
0.8299624084654879 0.7605300093566372 0.3900955839261726  F  F  F
0.8820145603445452 0.5457771052219562 0.3643064381507989  F  F  F
0.8653287660406919 0.3955243425869538 0.3711734504477335  F  F  F
0.7718480598376521 0.3960741747554323 0.3158679262280678  F  F  F
0.0095012737192083 0.5367593876594489 0.3820137481443197  F  F  F
0.9938747734529477 0.4126668594594557 0.3659517190411642  F  F  F
0.5444392087528117 0.8642033184249344 0.3517472554774002  F  F  F
0.0871156066573584 0.7583352134408966 0.3563230972755509  F  F  F
0.1540462673245424 0.8750014558062189 0.3697747719173215  F  F  F
0.0331841973246967 0.9829653208256256 0.3518660023792721  F  F  F
0.4306887266849698 0.8239809090939568 0.3720058148748001  F  F  F
0.5209374524234689 0.9922642760525182 0.3448983508734357  F  F  F
0.6589393195926410 0.4440747445417832 0.0602924005777759  F  F  F
0.7760892890242622 0.4199580876378737 0.0401977341302060  F  F  F
0.6871831999517198 0.2030261820493742 0.0518005673659120  F  F  F
0.1260621286229555 0.2868906918590828 0.0499245289313631  F  F  F
0.1786988093607775 0.4918208895247486 0.0493108178797188  F  F  F
0.4356093520033374 0.8536237431817304 0.0193524893670373  F  F  F
0.2041260297955615 0.6807771723392665 0.0449803063916437  F  F  F
0.2654485192119401 0.9499792276791722 0.0494775266209895  F  F  F
0.8979811129876963 0.5791055661037143 0.0372655225782931  F  F  F
0.9066148714466430 0.4588571940965823 0.0579640120204045  F  F  F
0.8218631793304981 0.0090057175487018 0.0576995815783716  F  F  F
0.7809155944254961 0.1219882160500719 0.0338394962186303  F  F  F
0.1698927451996741 0.1616485043145321 0.0690614065467315  F  F  F
0.0272016885958985 0.0291042315760341 0.0457055359605625  F  F  F
0.1324011188262356 0.9664993421347291 0.0553710635376202  F  F  F
0.9543742233466921 0.2793889308752496 0.0569500442449063  F  F  F
0.9454704357349702 0.3685325130490570 0.1139399687635181  F  F  F
0.6126251385331696 0.1025498706043722 0.0692811829226761  F  F  F
0.3527622212135438 0.3844201825776378 0.1094917003578962  F  F  F
0.2176524702116372 0.6729814999613065 0.0917445362345173  F  F  F
0.3199589043195712 0.7207728904528332 0.3101402156114363  F  F  F
0.3564664505171584 0.7285957449545937 0.1041461988110524  F  F  F
0.2959300210729293 0.8567328591407501 0.2974660046766934  F  F  F
0.4430663494413358 0.5717745812532885 0.2226263022490149  F  F  F
0.3963795749988278 0.1031769757234773 0.2884490237198976  F  F  F
0.6267305446012340 0.1868764372173283 0.2298084685953150  F  F  F
0.9166823595897836 0.0375027589639371 0.2744938574253024  F  F  F
0.0745229187970649 0.7715509970337947 0.3090881709617750  F  F  F
0.8174007453762917 0.7363694469647043 0.3455544821583789  F  F  F
0.8138998006164329 0.5312424621488040 0.1457387146709827  F  F  F
0.4134872946132155 0.8373854252039508 0.0638365101072413  F  F  F
0.5301803824874951 0.3910458667324315 0.1550567889492048  F  F  F
0.4694906726000884 0.3612059421240433 0.3368946994699016  F  F  F
0.6541422892731193 0.6774507143214988 0.1774067532233791  F  F  F
0.4636317929170926 0.7132291219988101 0.2063325040841719  F  F  F
0.7711815308934333 0.3990221936173282 0.1584691965472871  F  F  F
0.8525405910997639 0.7764905202049155 0.1305184549678233  F  F  F
0.8561433212408287 0.9210656000608954 0.2474794660078221  F  F  F
0.8693122091050198 0.5369929760437954 0.3175418278943280  F  F  F
0.6180359671300542 0.1324652125903351 0.3073512492815599  F  F  F
0.7736497306897677 0.9970019384977143 0.1834235299394676  F  F  F
0.5922714763527213 0.5637637876635686 0.2262481251421186  F  F  F
0.6168621941562973 0.5681729986071186 0.3180842767611024  F  F  F
0.9604452423321685 0.0763533334861700 0.1927688863721502  F  F  F
0.3288416960212109 0.1482402261542473 0.1233282188683973  F  F  F
0.2897463340398592 0.9157686064248665 0.2141593043470010  F  F  F
0.7435527015552319 0.8807177609140354 0.1237714976954850  F  F  F
0.7666239409503729 0.6933506001197960 0.2361274329053496  F  F  F
0.9471394673982624 0.8439281714451189 0.1904439239145676  F  F  F
0.7264526120078160 0.0934742509407625 0.3624378524355649  F  F  F
0.1621042138827397 0.8780610958383877 0.3221727137196234  F  F  F
0.0770094461665410 0.0054454154034086 0.0788841486724126  F  F  F
0.4657827557649700 0.3229356762084960 0.2235433365494211  F  F  F
0.0411969899108447 0.2608814836627277 0.2906867908386415  F  F  F
0.4768696567405972 0.1768495352734769 0.2240629673508647  F  F  F
0.1951193510070894 0.3248625722113335 0.2171724265480486  F  F  F
0.0906248044303150 0.6560351581436169 0.2601504914388678  F  F  F
0.1336471657206186 0.1337313805020977 0.1074047243420747  F  F  F
0.0406803230909381 0.4959087020285510 0.2075353482255473  F  F  F
0.3830831130372822 0.8189539311991935 0.1767413576424712  F  F  F
0.4734202961374365 0.9813647332543670 0.3072239014051011  F  F  F
0.6347594563462061 0.8755873174074772 0.2531932459344994  F  F  F
0.2639823311072502 0.2799220098743979 0.1403664546758079  F  F  F
0.6490122273644904 0.0530346213093952 0.0967840758335419  F  F  F
0.5819649932162586 0.0099329595690508 0.2587040546988232  F  F  F
0.1512309926164270 0.4652926805101542 0.0907520764384005  F  F  F
0.5414736175186461 0.5253883153320561 0.1155291701872250  F  F  F
0.4635978579934448 0.0127708924211384 0.1174270589819593  F  F  F
0.8078605388100328 0.2609760278460285 0.1390013837686312  F  F  F
0.6879492474598056 0.2604398578635796 0.0834149499507213  F  F  F
0.5670152506341976 0.2574916906516705 0.3320843455666715  F  F  F
0.4742431396076270 0.8471242367188900 0.3361757914558328  F  F  F
0.0641505190043189 0.1719040063311808 0.2194438315304009  F  F  F
0.1581910720295347 0.0142445502718747 0.2861697009782044  F  F  F
0.8440593811852780 0.1213154100828703 0.1486974298181130  F  F  F
0.9918213794670188 0.5598961948313091 0.2808277213838727  F  F  F
0.2955087740469124 0.9188386446234751 0.0887512224395851  F  F  F
0.8518771295698778 0.1420196131657086 0.3263775160582518  F  F  F
0.2444619504873745 0.5337147526753804 0.3344122357432807  F  F  F
0.0326470437748746 0.9548622754261334 0.1582025098318594  F  F  F
0.1579281584999147 0.9673232013227450 0.2020437238712076  F  F  F
0.2643309244341373 0.1109687095763993 0.2589136118845459  F  F  F
0.0363808285405081 0.5391580225194625 0.1202138726530052  F  F  F
0.7907974067377124 0.0748571796623841 0.0719849665403151  F  F  F
0.3560809875064896 0.3560176871664144 0.2831703355601837  F  F  F
0.0819872222980934 0.6805116980651661 0.1171333163142949  F  F  F
0.1830943978271522 0.1049062127915091 0.1885172162781125  F  F  F
0.2741053226852758 0.4462979455170536 0.2375547601880401  F  F  F
0.1478961011450788 0.3147437376155667 0.0924366723859424  F  F  F
0.5390233336610163 0.7730113859220642 0.2758880001004989  F  F  F
0.2509794218255168 0.2517048735309101 0.2882769485291207  F  F  F
0.7192827022640037 0.3986987827593730 0.0691367724691906  F  F  F
0.8686999342348103 0.6579013888264463 0.1811708312398689  F  F  F
0.4950994234088382 0.8761435724368187 0.1337582906387352  F  F  F
0.3732636727436352 0.5871589291218614 0.3011953678919603  F  F  F
0.6467060481986385 0.4250498672790136 0.2069513241751044  F  F  F
0.8469715508796304 0.3974699598411640 0.3234822491983045  F  F  F
0.7617449735408820 0.8197607764062261 0.2799942635874995  F  F  F
0.6270833735823134 0.8250243747414442 0.1672520945911569  F  F  F
0.6064135230192740 0.3169781181710506 0.2549053107444080  F  F  F
0.4715136782706945 0.1466373014702802 0.1378346802989757  F  F  F
0.5455749871070457 0.2647378706504409 0.1045792766080448  F  F  F
0.4778617877853450 0.6606388576035440 0.1219879272304649  F  F  F
0.0274393449479743 0.4772830826059673 0.3526832964032419  F  F  F
0.9047187815789716 0.2675108434144441 0.3239216288934580  F  F  F
0.0375542410524665 0.0487996683725863 0.3273674207898511  F  F  F
0.3362799890394808 0.0128605318062802 0.1565287864573154  F  F  F
0.3568775684214828 0.4929405377336642 0.1687427372301865  F  F  F
0.1570591051728891 0.2922860845314963 0.3474806246720535  F  F  F
0.1479013340826583 0.4297675933637803 0.3204295664291231  F  F  F
0.6783168705328069 0.5767730941218076 0.1203339273155618  F  F  F
0.2315418451279873 0.5521295622804789 0.1405001884728390  F  F  F
0.1754546465072875 0.5539457440124128 0.2215179555470063  F  F  F
0.0064144252591059 0.7141473160722249 0.1912450125775796  F  F  F
0.7513617943912121 0.6195202645188771 0.3151263949198834  F  F  F
0.9370807249013445 0.2947349939120600 0.1027872254657969  F  F  F
0.6475263290462421 0.0669131333509726 0.1883162846990316  F  F  F
0.0746335990777225 0.3764337166158066 0.2448803007340701  F  F  F
0.9059143045578193 0.5320955494879820 0.0746629415514032  F  F  F
0.0536401904800639 0.2382506638942013 0.1401021838628528  F  F  F
0.7328758691455620 0.5820640467474159 0.0634952379897607  F  F  F
0.5654525338079880 0.4825537281599527 0.0582888166412274  F  F  F
0.3216184609819290 0.4048143035531659 0.0491480010587117  F  F  F
0.4522353135548942 0.3522242717656398 0.0979837479995820  F  F  F
0.4621178943871521 0.5935488821664099 0.3370201548827458  F  F  F
0.5675186759302278 0.6244324343027071 0.3652204181143344  F  F  F
0.5726615210184989 0.4702444484716894 0.3255374720446487  F  F  F
0.2146784691014839 0.7312430073867650 0.3005211048614567  F  F  F
0.3373495703634616 0.6991577653106613 0.3751441879243261  F  F  F
0.2144737328760505 0.6340695083979307 0.3255179763616990  F  F  F
0.2390147521031035 0.4813104231002511 0.3926356884286049  F  F  F
0.5189184245711869 0.4011433779906365 0.2850382565997828  F  F  F
0.4648400496205961 0.4238468874837100 0.3885008593537160  F  F  F
0.1253986317003442 0.2419459517420124 0.4015215277501643  F  F  F
0.5779255635344243 0.6935133601895809 0.3121600339202071  F  F  F
0.5800918763934360 0.2936065119881854 0.3933506315761353  F  F  F
0.3730745730398216 0.1871728838672502 0.3254602170553850  F  F  F
0.7036755374869788 0.1393899741281147 0.4199241505445830  F  F  F
0.8983402948076271 0.1739295934721748 0.3813557494110842  F  F  F
0.8947682920233556 0.6858466435327352 0.3124421479411501  F  F  F
0.8030899097933029 0.7933287847212214 0.4000251020159997  F  F  F
0.9253353435229240 0.5486354564356958 0.3738754478374556  F  F  F
0.7482443495920732 0.3575173195007433 0.3178326086710266  F  F  F
0.8434720895970242 0.4235954525245507 0.3893551352162879  F  F  F
0.0221806879726016 0.5334349748219011 0.4092118777122277  F  F  F
0.9485512499248667 0.4109476005587220 0.3709617233054945  F  F  F
0.9656941320098559 0.7639400808027113 0.3116541702907746  F  F  F
0.0882324725478905 0.7149595369673968 0.3646544597860360  F  F  F
0.1345686617087853 0.8361149363276532 0.3785683804926627  F  F  F
0.9817099661833228 0.1211112384011338 0.3592593447888512  F  F  F
0.0669019221749127 0.9716619821535653 0.3695185712507260  F  F  F
0.5501997793690909 0.9090332403871207 0.3565107880098768  F  F  F
0.3960310023740115 0.7945850304607899 0.3673773770711193  F  F  F
0.3619576667452374 0.9085235465291630 0.3362447452391496  F  F  F
0.7192577092605735 0.9888419969620181 0.3704712124962247  F  F  F
0.5510059305426723 0.0259602424170154 0.3411428970248888  F  F  F
0.8891271743315993 0.3079959624372351 0.3837186261694992  F  F  F
0.8187495774981401 0.4248018958229387 0.0498037887790062  F  F  F
0.6705606787824769 0.4886514556307331 0.0590542630372425  F  F  F
0.7259401171184976 0.1821862850371205 0.0428949365174982  F  F  F
0.3120132151424581 0.1024425571850667 0.0646564204691243  F  F  F
0.1385991781044231 0.2428804288583932 0.0470995907504145  F  F  F
0.2226266835635362 0.4824227420197588 0.0450560280686912  F  F  F
0.2522562427099100 0.8217836880664929 0.0981262483733247  F  F  F
0.4763883416610652 0.2735738907229722 0.0550776392544549  F  F  F
0.4555738588198756 0.8213615088425893 0.0038857872706934  F  F  F
0.1608383607478301 0.6781849921762111 0.0365760428326174  F  F  F
0.4128517257419077 0.9750786043887547 0.0648935212651072  F  F  F
0.0170493735889478 0.7244799548101251 0.0736260021416979  F  F  F
0.8771302364321257 0.7956457554883576 0.0679433036988231  F  F  F
0.7021925193836160 0.9294861363814126 0.0737170863635726  F  F  F
0.5234517730092028 0.7359654292359429 0.0869457952578354  F  F  F
0.2207254766412252 0.9604730870014850 0.0513323777183635  F  F  F
0.9216247192447801 0.6177553304128625 0.0377942032174277  F  F  F
0.9320653094602331 0.4509075367760904 0.0349099977266934  F  F  F
0.5949237746138714 0.9625888228722461 0.0935170835918308  F  F  F
0.7979963569485893 0.9708366575509486 0.0642262920822885  F  F  F
0.7794719918942006 0.1022424832814538 0.0083117990191664  F  F  F
0.2158536039247432 0.1558851029931238 0.0693657599762020  F  F  F
0.9846341420098240 0.0378874853111705 0.0538555569953673  F  F  F
0.9981179489432254 0.2824230890586829 0.0493869642569625  F  F  F
0.9311123449139321 0.3991262808242073 0.0945745647810171  F  F  F
0.1173989218811153 0.9366178972717509 0.0361599165352276  F  F  F
0.6354661930401050 0.1409254050305556 0.0615773077023562  F  F  F
0.5814107939599311 0.4640157305295905 0.4741484894984505  T  T  T
0.4493392479816338 0.4523673930519889 0.4751254155697247  T  T  T
0.5055848496371841 0.5607273350250289 0.4938533426508899  T  T  T
0.6640551239535410 0.6022445039701410 0.4629372445268881  T  T  T
0.3455844541393780 0.5747511135313924 0.4656396669783460  T  T  T
0.3058795876051347 0.4480249463519553 0.4745877899779823  T  T  T
0.7236835186267210 0.4856757964358966 0.4738874264794327  T  T  T
0.5880611879988500 0.5176175670139527 0.5298878498379215  T  T  T
0.5232165361413208 0.3761889921580603 0.4889666274442505  T  T  T
0.5100996885135838 0.5155570223419875 0.4323969644217531  T  T  T
0.6544897442459913 0.5111362404297749 0.4243948193235303  T  T  T
0.3698440762911074 0.4875156412178082 0.4262414263441561  T  T  T
0.4332520158333084 0.5036597723918568 0.5309344968156486  T  T  T
0.4243749282554816 0.6398272478786102 0.4845105713943568  T  T  T
0.5719555218159552 0.6505172808609271 0.4760408685529867  T  T  T
0.7282738174183153 0.5720787556228935 0.5140099841633136  T  T  T
0.7183849020796486 0.6627369551813045 0.4284238089052464  T  T  T
0.2830017506177738 0.5330664361529361 0.5137851661105974  T  T  T
0.2844416458609539 0.6272761378447048 0.4298421835995282  T  T  T
0.2229748529178970 0.4114922949856715 0.4485633731599558  T  T  T
0.3700899712411846 0.3752021034409864 0.4990539294988686  T  T  T
0.8132127494734214 0.4687372282902590 0.4483440037022614  T  T  T
0.6738975580169002 0.4013959824542194 0.4970814364446982  T  T  T
