 O Si  H Mo  S                          
   1.00000000000000     
    21.3948993682999991    0.0000000000000000    0.0000000000000000
     0.0000000000000000   21.3948993682999991    0.0000000000000000
     0.0000000000000000    0.0000000000000000   34.1699981689000012
   O    Si   H    Mo   S 
   236   102    68     1     4
Selective dynamics
Direct
  0.2825718559085431  0.7101719975963761  0.1017264560666860   F   F   F
  0.6117132407504755  0.6247670768330167  0.2034471080036155   F   F   F
  0.1509877447905126  0.3905206485220987  0.0916646449652916   F   F   F
  0.3797879093229142  0.4415013736218469  0.1408259128487899   F   F   F
  0.6765198966344883  0.8484130257844527  0.1355450667901579   F   F   F
  0.1025189986733608  0.4671404244563817  0.3538344226902979   F   F   F
  0.0038175667645319  0.7610829465364901  0.2985269589947919   F   F   F
  0.6586328164444879  0.1440380314359260  0.1968143761021039   F   F   F
  0.2143848467220550  0.9163856163504605  0.2057710263923695   F   F   F
  0.8452555734250424  0.5325800509756107  0.1029719469549732   F   F   F
  0.4124966045525156  0.7687446988621502  0.2093252208019791   F   F   F
  0.5187001284172794  0.5512399731476236  0.2264835397798706   F   F   F
  0.1144860474753671  0.5134252899339629  0.2156637327532209   F   F   F
  0.6062745340694846  0.5022675090021167  0.3412058946563974   F   F   F
  0.4372854518923859  0.6478302345919502  0.2220758921075330   F   F   F
  0.1243689724793597  0.4187971563453843  0.2814222176709720   F   F   F
  0.5209344529594020  0.7362585902483190  0.2372315607906401   F   F   F
  0.3182345929863715  0.9826567694590551  0.1995476949725017   F   F   F
  0.3233164387447545  0.8567059524084044  0.1927210079526347   F   F   F
  0.8139552764187385  0.8753646605735455  0.2736334157328173   F   F   F
  0.9758098628793448  0.2483626687456848  0.3099329403430460   F   F   F
  0.9872700392538789  0.0426867889112259  0.2919540488865238   F   F   F
  0.0027143053545586  0.0208920310054097  0.1758827739056201   F   F   F
  0.0987198126634112  0.2965619575380884  0.1271358892984580   F   F   F
  0.5928698853274241  0.7333593692551545  0.3001509321536204   F   F   F
  0.4230764241797189  0.5870233064438182  0.3391625444983148   F   F   F
  0.8009001224184047  0.3269647476131823  0.1657008221518055   F   F   F
  0.0644124359797402  0.2042942469137827  0.2633173118434087   F   F   F
  0.5215216165281191  0.6912798564160667  0.0885345599162264   F   F   F
  0.1535039292267939  0.6138622851784987  0.2518816794639775   F   F   F
  0.5524203605475222  0.1780123187226934  0.2317828192613192   F   F   F
  0.7186607703439307  0.4126266456256076  0.1935914068672560   F   F   F
  0.5114076823473752  0.9500982343930318  0.1251267872865043   F   F   F
  0.2539073065770054  0.8640516225195256  0.1085668588697573   F   F   F
  0.6273840476407173  0.7477172526929294  0.1748556980126992   F   F   F
  0.7414045259573072  0.9049896207742165  0.0791153878162660   F   F   F
  0.6938332178767652  0.8507230044108809  0.2800855039167871   F   F   F
  0.7210857196410885  0.6811681329320578  0.2014703382076206   F   F   F
  0.2233355917357684  0.2848560149834327  0.1814276953910365   F   F   F
  0.1125201702137630  0.0615534402173807  0.1026907584053518   F   F   F
  0.5631534596504864  0.1810873852502795  0.3213852413303044   F   F   F
  0.7813764915632788  0.6708967049441057  0.3486553092825346   F   F   F
  0.2068837762951716  0.2854341665096527  0.2578882218754046   F   F   F
  0.6156980137480730  0.5353810028167274  0.1308528838734304   F   F   F
  0.3321332803865005  0.4648407511713089  0.2112339628869080   F   F   F
  0.3167816563032915  0.3353191776531261  0.1401603473011761   F   F   F
  0.3030789279187402  0.9724626774002374  0.1225584370152575   F   F   F
  0.4998929728968022  0.5863904270670730  0.1266944745553928   F   F   F
  0.8703817629786101  0.4646391925077680  0.3025847068576510   F   F   F
  0.5924262483074898  0.0635158280162429  0.2935335288459555   F   F   F
  0.4601464441778305  0.1399412912951092  0.1851707367748219   F   F   F
  0.4797155160270847  0.7924553079158088  0.3034768262987768   F   F   F
  0.5129416420224757  0.4114399726381990  0.3195575256510637   F   F   F
  0.0994664731527806  0.8432054018378849  0.3041724548280129   F   F   F
  0.3092701665608928  0.4145991348362017  0.2788276855806799   F   F   F
  0.7809038939230675  0.1309532683712646  0.3411597249644132   F   F   F
  0.4916457868242290  0.7004705926329038  0.1633893036856193   F   F   F
  0.9886318748355905  0.8958305144016876  0.1683104284530117   F   F   F
  0.8871939811187488  0.7287867348515675  0.3280196520646399   F   F   F
  0.6124414700063099  0.5733664904909190  0.2743659758815156   F   F   F
  0.7933567130774861  0.8226144301052116  0.1274023814297749   F   F   F
  0.8862692521243858  0.3377405035777414  0.3108850933121730   F   F   F
  0.8208461583288766  0.4586983920531509  0.1640132517468942   F   F   F
  0.6375944938151576  0.2639364156901394  0.2275905316074613   F   F   F
  0.8975933753823639  0.8147030015451406  0.1637438618511879   F   F   F
  0.8740744009519474  0.0936932546167455  0.2963153217543919   F   F   F
  0.4440315944616415  0.9123719359486273  0.3165386556993681   F   F   F
  0.1068621341747473  0.0597896548003476  0.3078751955475099   F   F   F
  0.0332993654772267  0.4254727330824437  0.2259488626265096   F   F   F
  0.5715980244320633  0.8414705102481932  0.2652852762091058   F   F   F
  0.0037890905500362  0.1315427537000318  0.2129571114213533   F   F   F
  0.2178335181302273  0.2865906853628886  0.1042855963876974   F   F   F
  0.4377689132817153  0.8691018687382410  0.1655811933911409   F   F   F
  0.4125327124882503  0.0066140017682201  0.1528134510307240   F   F   F
  0.1251504856114849  0.1277567248544145  0.2155091083213208   F   F   F
  0.1005049843400556  0.9397868376356229  0.1779332908327049   F   F   F
  0.3020514187859504  0.9039737966528421  0.2608707938200965   F   F   F
  0.3613525384598049  0.7769547863899220  0.1411640795789566   F   F   F
  0.5905026976707219  0.0436490281910054  0.2162996901534697   F   F   F
  0.3185033473917969  0.0864017700625013  0.1517948309105890   F   F   F
  0.4087682833300335  0.3529489093961402  0.2507844065911016   F   F   F
  0.5163464298324172  0.2082171076314054  0.1316050920475575   F   F   F
  0.6960505294955510  0.3279804591734674  0.0622834195472279   F   F   F
  0.8396106707145989  0.7070456566698340  0.1512059528585681   F   F   F
  0.8363313613952599  0.6697422150132368  0.2263623228615614   F   F   F
  0.6210814467268904  0.2578629356701825  0.1068199429492012   F   F   F
  0.3797405257374677  0.7678036360662119  0.0673023756456530   F   F   F
  0.4217748033250288  0.0361469698310373  0.3046330369243790   F   F   F
  0.3127773227209190  0.5485784169649150  0.3137492274034059   F   F   F
  0.2458468632749842  0.1243434929182783  0.2142973209633396   F   F   F
  0.7407112120708774  0.5485110556308612  0.1445223992853428   F   F   F
  0.6313086319264016  0.0598430857416261  0.1433487436820968   F   F   F
  0.8146383354478388  0.9625318059730859  0.2178651062390813   F   F   F
  0.1673867153987487  0.3645917033199666  0.3465505195347234   F   F   F
  0.2416269314356825  0.6960177734936011  0.3155500788227386   F   F   F
  0.0436798071276101  0.7204470751832091  0.1517739877263580   F   F   F
  0.6666656988830795  0.6477129142565659  0.1358902695362261   F   F   F
  0.7082857839426850  0.0245660595811756  0.2009549989611514   F   F   F
  0.6477784863338556  0.8620775907898732  0.2077236507057520   F   F   F
  0.4120975704826577  0.3537700821587109  0.0886363624963948   F   F   F
  0.5206727418950834  0.2644309358420287  0.0609495921926992   F   F   F
  0.9123857410963936  0.8823776756168229  0.2279374089503321   F   F   F
  0.5292249893376280  0.3362342187727023  0.1239397565500937   F   F   F
  0.4044123255296270  0.1582154088254768  0.1168759365199818   F   F   F
  0.7705444131633854  0.7689802884867731  0.2461694794808125   F   F   F
  0.6338351600318433  0.9805076163361193  0.0838799382888880   F   F   F
  0.2145529433493962  0.4730597268791215  0.3237145485531414   F   F   F
  0.0548840954353338  0.6797100432344578  0.2233137096463551   F   F   F
  0.8870235724525628  0.9711658490877326  0.2809390144921693   F   F   F
  0.1843341503072367  0.0306899649551369  0.1810018240143378   F   F   F
  0.3361635649293788  0.0893444031413608  0.2626738060419811   F   F   F
  0.0421957926194878  0.6170345583318948  0.2896863957863474   F   F   F
  0.9185092422787875  0.1106114801508937  0.1592579279638571   F   F   F
  0.4468240393552136  0.1427549327528794  0.2617904310091674   F   F   F
  0.1816887962201861  0.1386839401531219  0.1459589176548732   F   F   F
  0.1315788591419320  0.9879943492801218  0.2453841727705779   F   F   F
  0.3203919745175199  0.8841753656527374  0.3366242346229882   F   F   F
  0.2954372161185503  0.1361139971055252  0.0808110277634455   F   F   F
  0.8650259484078120  0.2714524264632772  0.1087723064480386   F   F   F
  0.8879074571550802  0.7644460942426008  0.0911692103168491   F   F   F
  0.1161600847461486  0.7184671608215893  0.2870455187394896   F   F   F
  0.4753565527850583  0.8385891037617199  0.0946570995232747   F   F   F
  0.4360108094437578  0.0125233961555367  0.0744907248167976   F   F   F
  0.2187370961452899  0.8408266614688102  0.3050979878940083   F   F   F
  0.8085709361770768  0.0605682593142589  0.1676764377052962   F   F   F
  0.9439435881410674  0.6713856175324011  0.1880008773206185   F   F   F
  0.3199328934835037  0.2889544679821796  0.2888848690080721   F   F   F
  0.9158517874388465  0.0528003943594371  0.2280999431834445   F   F   F
  0.7981393676585284  0.5643927613703923  0.3094893404581995   F   F   F
  0.3548312542840861  0.6615820985721896  0.2916773473831284   F   F   F
  0.4946938377645438  0.2865785220651276  0.3296258440080706   F   F   F
  0.6604874640104654  0.1188048913094875  0.3465089970143893   F   F   F
  0.9198197547183540  0.5810492515274461  0.2937995866500458   F   F   F
  0.9708601644161732  0.5487110409005851  0.1003427029122150   F   F   F
  0.5120040780027608  0.9834086715394648  0.2656602380873352   F   F   F
  0.4029393720251591  0.6671037306397380  0.1128748803240640   F   F   F
  0.3834883900221513  0.1451897831037670  0.3284588806694231   F   F   F
  0.4757472950393833  0.3689468558322702  0.1879587139971477   F   F   F
  0.0212628741460605  0.5057054800007634  0.1647866091690133   F   F   F
  0.0813870564159203  0.4923930250820661  0.0966755985596137   F   F   F
  0.2043192417887383  0.5807157229718811  0.1837172878220201   F   F   F
  0.9810477925768737  0.2557900457191096  0.1339013398049858   F   F   F
  0.1946246474258331  0.4879911894195601  0.1310886319480247   F   F   F
  0.3674296693947312  0.8944878506446940  0.0769211463441906   F   F   F
  0.3065995973837090  0.5379863942493657  0.1499798112159780   F   F   F
  0.7401672902393059  0.4028955827507303  0.1170705998091321   F   F   F
  0.1556463846621767  0.6970690918774665  0.1173411226832215   F   F   F
  0.5609335671615838  0.6209086323707567  0.3358243993864107   F   F   F
  0.6126855553166521  0.2923988421073318  0.3024834515605050   F   F   F
  0.4533246556426747  0.2502383523804639  0.2185372049925292   F   F   F
  0.2598101714775822  0.1789410556346382  0.2823537811124694   F   F   F
  0.6849817563599316  0.5959713116816161  0.3350276465065676   F   F   F
  0.5323536699707034  0.3296839810684276  0.2507215857503411   F   F   F
  0.3959465758552909  0.3646639140586174  0.3269422969925415   F   F   F
  0.2995579892389273  0.2116946993254061  0.1410593634729125   F   F   F
  0.5993275888294676  0.3912927432640529  0.1789383183421052   F   F   F
  0.5380086487934648  0.5110966593316562  0.0701677602700386   F   F   F
  0.2375413127389479  0.3915169284951645  0.2187663168355058   F   F   F
  0.6415913587471849  0.3844908864183836  0.2508568914645011   F   F   F
  0.0396482819300488  0.9623505130515326  0.1118940508607622   F   F   F
  0.8535745569993338  0.5847693177999318  0.1716583782765042   F   F   F
  0.6902373808842057  0.5709892362471365  0.0742273986271584   F   F   F
  0.6311737574988499  0.4981293700880087  0.2156298110828132   F   F   F
  0.0711705048720646  0.1752472862029322  0.1170304557959767   F   F   F
  0.9102887093726721  0.2675661441885495  0.3755787415687522   F   F   F
  0.8357451912151390  0.1153852991066273  0.1013782614187448   F   F   F
  0.5007317687635435  0.0797334679553359  0.1234543855871451   F   F   F
  0.6305131366205146  0.9515300794228310  0.2627245283095903   F   F   F
  0.2285722773315300  0.6000006557672748  0.1070976375882680   F   F   F
  0.0667530532905118  0.2291113021820053  0.1875743184106753   F   F   F
  0.7617769619713215  0.9418060375135795  0.1514006961715211   F   F   F
  0.8217027589149808  0.1925870700197905  0.1622165355016136   F   F   F
  0.2209543890168462  0.2582603938972952  0.3333374976647079   F   F   F
  0.0253000431245738  0.1115897338755047  0.3540197341589817   F   F   F
  0.7249982117314460  0.0618089405865589  0.0935765192612550   F   F   F
  0.3059775637815960  0.4128641220082727  0.0787440778074284   F   F   F
  0.7754677964699397  0.7887591947422408  0.3233322264632221   F   F   F
  0.0728083165205788  0.6046266436872543  0.1289439825910463   F   F   F
  0.8579630163602872  0.2157834043027194  0.3149648393270326   F   F   F
  0.1262150308044951  0.3469353253624092  0.2159063540294852   F   F   F
  0.0410513548034928  0.3277286265286961  0.2708855267444861   F   F   F
  0.6576174815967946  0.1631642002673175  0.2722688368238266   F   F   F
  0.2296665310041703  0.5085642817462457  0.2453353282247548   F   F   F
  0.7391592044621973  0.6578734875058529  0.2760240039760973   F   F   F
  0.7424308403837401  0.2504412507791969  0.1167170473617745   F   F   F
  0.0075405598095344  0.5007785277540009  0.3098612746397436   F   F   F
  0.2151336622169708  0.5886886520734862  0.3556602239078117   F   F   F
  0.3212488113792702  0.7839881525840653  0.2862541913476164   F   F   F
  0.0962242294147515  0.2641345801693902  0.3279099374980987   F   F   F
  0.4070445475335092  0.5542499532280942  0.2643004428132585   F   F   F
  0.7379882466913728  0.0184489702397457  0.3551515450824354   F   F   F
  0.4167950790522141  0.5390042115391367  0.1857950482204416   F   F   F
  0.0500160664365694  0.6948663828723767  0.0759821912845453   F   F   F
  0.9956461268306640  0.5415192630123045  0.2363781637680731   F   F   F
  0.5181365648155776  0.4612323733595360  0.1408861823197114   F   F   F
  0.9907104661514836  0.7860784662113502  0.2083705864777912   F   F   F
  0.1704579908594610  0.9535903545272433  0.3135663312723267   F   F   F
  0.5577280558643238  0.8432532754023967  0.1532219997898991   F   F   F
  0.2204038391331906  0.0576326656217248  0.2793774915844693   F   F   F
  0.3416914490152578  0.7293227240698243  0.3563112121405254   F   F   F
  0.2872816941628855  0.4991621200415537  0.3846462000322006   F   F   F
  0.4771060800982880  0.3636196977784678  0.3879964784593000   F   F   F
  0.1505098606984063  0.2750638813811221  0.3978396814526803   F   F   F
  0.5919817696794496  0.2629512671718146  0.3775468775163233   F   F   F
  0.7261790999602269  0.1041844786875856  0.4114343126634239   F   F   F
  0.9001003331814843  0.1337515108800034  0.3678645265997531   F   F   F
  0.8293436588912471  0.7643851418611050  0.3920716280191598   F   F   F
  0.8800663648105598  0.5412099641181953  0.3648054687408120   F   F   F
  0.8667104599343389  0.4086441164002608  0.3719474184674212   F   F   F
  0.7732651481468906  0.3952790393181544  0.3165570857629305   F   F   F
  0.0072050353540689  0.5366503139934267  0.3824839918008180   F   F   F
  0.9943890098324388  0.4124702122448625  0.3663311795354147   F   F   F
  0.5444900882992556  0.8658748591426786  0.3539307652488475   F   F   F
  0.0900033283205701  0.7604495285555544  0.3592925581699404   F   F   F
  0.1541392523088660  0.8773781349087244  0.3713571380310654   F   F   F
  0.0337118723365890  0.9829069720815937  0.3512156675912124   F   F   F
  0.4310862318655708  0.8227479876694304  0.3722518990353265   F   F   F
  0.5213966233907854  0.9925286920559628  0.3451138625644887   F   F   F
  0.6586933539399524  0.4449039654384848  0.0623863907156519   F   F   F
  0.7758390025227015  0.4208421003758289  0.0423460892207714   F   F   F
  0.6870801154671682  0.2039105354642743  0.0523169109669936   F   F   F
  0.1272499133273683  0.2873361165977855  0.0507033278739115   F   F   F
  0.1797198447546648  0.4944608727463304  0.0518514655332183   F   F   F
  0.4364562864533781  0.8503762605720624  0.0204319563504498   F   F   F
  0.2065855350811105  0.6785587901135344  0.0463156701595153   F   F   F
  0.2665200993279200  0.9499823424244482  0.0495076288781462   F   F   F
  0.9002243269697345  0.5823407719003484  0.0397216762626371   F   F   F
  0.9083877239114244  0.4608758640728041  0.0576737142160297   F   F   F
  0.8219872980815950  0.0090946275986923  0.0576494431287884   F   F   F
  0.7819663600867841  0.1226934356588103  0.0339279937179242   F   F   F
  0.1688852384133810  0.1621807061802585  0.0697136074958991   F   F   F
  0.0263186223727843  0.0293101320735332  0.0466549487022974   F   F   F
  0.1313910295128835  0.9666839273523067  0.0563200602048184   F   F   F
  0.9545177505465716  0.2794600460738792  0.0573325139718435   F   F   F
  0.9453204429109903  0.3688683012616991  0.1140285742387519   F   F   F
  0.6126962593933456  0.1025602717825436  0.0694801359151782   F   F   F
  0.3539558016410993  0.3856435485323146  0.1126244385294797   F   F   F
  0.2177391574576575  0.6716583251293287  0.0933953460512171   F   F   F
  0.3149956728312020  0.7187173686125377  0.3110730497863727   F   F   F
  0.3566679655725906  0.7273188773985950  0.1057686873653481   F   F   F
  0.2925489823781859  0.8541797326178724  0.2967533960001987   F   F   F
  0.4452955458082570  0.5726210763759028  0.2246297253413942   F   F   F
  0.3975557293733800  0.1039989768813996  0.2892127896932593   F   F   F
  0.6275831132494574  0.1877573187837740  0.2308366995305917   F   F   F
  0.9169038457031462  0.0406801102156038  0.2752073399239379   F   F   F
  0.0753477123890391  0.7718527528869856  0.3121318160034718   F   F   F
  0.8173723363967653  0.7384191883189217  0.3478840648634005   F   F   F
  0.8152311873244500  0.5308146461806800  0.1471003717873245   F   F   F
  0.4138852540148150  0.8364763339988741  0.0650936404909572   F   F   F
  0.5312893626271489  0.3911746800973859  0.1577936810510678   F   F   F
  0.4689573542374958  0.3570970639585553  0.3408338878659549   F   F   F
  0.6543080702953503  0.6764456071827567  0.1795915431135455   F   F   F
  0.4658202968560659  0.7140133098032848  0.2078404672478271   F   F   F
  0.7715584257868855  0.3984816624708571  0.1602047594762936   F   F   F
  0.8534606053007963  0.7772287952298242  0.1336770577171364   F   F   F
  0.8571036103241596  0.9231411144492938  0.2490291258147010   F   F   F
  0.8677788420330970  0.5377149981421567  0.3172687567102059   F   F   F
  0.6184540071650346  0.1318590140845330  0.3082074718286307   F   F   F
  0.7743877162642860  0.9972207974003524  0.1839416192218195   F   F   F
  0.5940637921954419  0.5621415359935824  0.2289825183761138   F   F   F
  0.6162299580144008  0.5708481906858438  0.3215649190321699   F   F   F
  0.9608795707417528  0.0781809707061143  0.1934181610794496   F   F   F
  0.3295215017825228  0.1477540277647904  0.1238023305505607   F   F   F
  0.2896709100153245  0.9154139675916113  0.2144590061756588   F   F   F
  0.7437104707453202  0.8803237771222499  0.1248598675282153   F   F   F
  0.7664808094694422  0.6943232104434429  0.2381406663003816   F   F   F
  0.9482169249328720  0.8452982186155111  0.1930688310441226   F   F   F
  0.7267090912991847  0.0926497002818962  0.3640245785939129   F   F   F
  0.1601392398936738  0.8799967341507013  0.3236014049284250   F   F   F
  0.0761792415647093  0.0058285379350309  0.0798503204927670   F   F   F
  0.4668750011507115  0.3241202605768905  0.2262712441359582   F   F   F
  0.0453013565204117  0.2605952434386865  0.2928738950327059   F   F   F
  0.4775398324525142  0.1779413508698937  0.2246427669711153   F   F   F
  0.1992089593640571  0.3265032732126443  0.2179900364082670   F   F   F
  0.0916963839204712  0.6568830538083859  0.2624312226876597   F   F   F
  0.1337671658500597  0.1339475422756990  0.1084402199550354   F   F   F
  0.0410253869844226  0.4966255479100212  0.2101263851812334   F   F   F
  0.3837728275045862  0.8183557272140760  0.1780281287114249   F   F   F
  0.4737541198536306  0.9814724252125089  0.3074889462815307   F   F   F
  0.6359844858228882  0.8765254811952374  0.2541485116235620   F   F   F
  0.2647640022797617  0.2794993806889536  0.1414525328338172   F   F   F
  0.6495165919724073  0.0534610040867065  0.0971047409988657   F   F   F
  0.5824136009315737  0.0103560311023614  0.2588594444215602   F   F   F
  0.1529029196004572  0.4657803325838330  0.0929400681041841   F   F   F
  0.5425009116764414  0.5240688681615282  0.1170702439909306   F   F   F
  0.4652977458333751  0.0122874774026371  0.1186824439377929   F   F   F
  0.8081659619505572  0.2607676212137520  0.1396158451669436   F   F   F
  0.6880181771080771  0.2609702264104499  0.0842364861737437   F   F   F
  0.5650802414681309  0.2556741188833058  0.3330012061520264   F   F   F
  0.4753385625097408  0.8475542353018000  0.3370842748411746   F   F   F
  0.0651672049532692  0.1736684310912224  0.2199979085414441   F   F   F
  0.1579498369257806  0.0152983592998055  0.2867883527529926   F   F   F
  0.8447355466670743  0.1212937204762667  0.1487825702837853   F   F   F
  0.9918062898566760  0.5607596001829975  0.2823108834451560   F   F   F
  0.2963637122294500  0.9189839130033519  0.0889421112993958   F   F   F
  0.8531618399492231  0.1429004798414439  0.3296617722744060   F   F   F
  0.2570595678311420  0.5282042682717005  0.3440813933972251   F   F   F
  0.0325180457380299  0.9558100743403415  0.1593010458284070   F   F   F
  0.1583663509483912  0.9680345204843235  0.2027026135277836   F   F   F
  0.2641801343018244  0.1120716347525175  0.2600320300959211   F   F   F
  0.0371863376725443  0.5377434407551078  0.1228144369022530   F   F   F
  0.7912768121812022  0.0751425178986764  0.0719226485173152   F   F   F
  0.3571210682371060  0.3557713125136317  0.2859754313363254   F   F   F
  0.0809526001765306  0.6791908845186327  0.1191625610777791   F   F   F
  0.1843672972878423  0.1057283828435018  0.1889832637686339   F   F   F
  0.2756807135508197  0.4469678164782920  0.2401822018357436   F   F   F
  0.1490099433356775  0.3152457651976448  0.0932072528923200   F   F   F
  0.5408794731778030  0.7743372837011577  0.2769584099203684   F   F   F
  0.2522575745390867  0.2527246174270559  0.2902388320804832   F   F   F
  0.7189455624065957  0.3993025998594462  0.0711042857917050   F   F   F
  0.8688969757813254  0.6576903563088052  0.1836814880865205   F   F   F
  0.4958432389292113  0.8757683096771771  0.1350383222730898   F   F   F
  0.3746210151343448  0.5887600056456535  0.3022551935706730   F   F   F
  0.6482969313002016  0.4241276491302131  0.2095036463779820   F   F   F
  0.8481133237491605  0.4001410137087049  0.3246980750171602   F   F   F
  0.7633446212548378  0.8208858468336544  0.2808716615776987   F   F   F
  0.6273929543670320  0.8238341799669442  0.1684947894704010   F   F   F
  0.6073296264638941  0.3169749428303490  0.2572986847889425   F   F   F
  0.4718404953576822  0.1470078801849510  0.1382372103602449   F   F   F
  0.5461035080432737  0.2659500213369625  0.1058601194419140   F   F   F
  0.4788190049641585  0.6599390639460836  0.1230866711674281   F   F   F
  0.0277789381176206  0.4775697169208755  0.3534334314007239   F   F   F
  0.9087185641366986  0.2694224427449186  0.3271707482316373   F   F   F
  0.0378337691184640  0.0495580450568198  0.3275450535495139   F   F   F
  0.3370339959519697  0.0124258120035847  0.1570106344094597   F   F   F
  0.3589605477096285  0.4954824866929926  0.1715969474711088   F   F   F
  0.1575078743545006  0.2897024219871298  0.3511831019381333   F   F   F
  0.1520742944958400  0.4306348266738027  0.3255888475982260   F   F   F
  0.6787619279860166  0.5756442831579065  0.1219442132551976   F   F   F
  0.2329696568898214  0.5513156073411025  0.1432189801077755   F   F   F
  0.1765696857283672  0.5539987434721141  0.2250151535737359   F   F   F
  0.0068769863717790  0.7148430361911977  0.1936921613745355   F   F   F
  0.7504584344911365  0.6223132646253404  0.3174780247896294   F   F   F
  0.9372609448600002  0.2949236602393412  0.1031738443810042   F   F   F
  0.6486660060585550  0.0681901982873114  0.1888824697321994   F   F   F
  0.0822239467653105  0.3802362982513898  0.2489030274529611   F   F   F
  0.9076723019973372  0.5329697734429573  0.0759903988530652   F   F   F
  0.0540879467613209  0.2395696374635392  0.1411948112802577   F   F   F
  0.7305892159890490  0.5841366261803955  0.0641106583579472   F   F   F
  0.5675492505937427  0.4795956347188124  0.0606444710028740   F   F   F
  0.3242772184738527  0.4104743653496357  0.0527742923303478   F   F   F
  0.4535463823282413  0.3538324905001033  0.1009291227898714   F   F   F
  0.4664716274360146  0.5992867180782042  0.3345761747024270   F   F   F
  0.5547763628191831  0.6291987822913683  0.3639712621000655   F   F   F
  0.5718501777431726  0.4741044147044136  0.3336839549539121   F   F   F
  0.2069990313395351  0.7154908797484296  0.3013400936320494   F   F   F
  0.3097184876282739  0.7379604347414883  0.3757572664478488   F   F   F
  0.2221458246778028  0.6273216735027987  0.3403059140727223   F   F   F
  0.2900630501346910  0.4539021230434486  0.3856614255506514   F   F   F
  0.5195158028992921  0.4038173266607501  0.2916718291556748   F   F   F
  0.4614300625519121  0.4017518145730108  0.4008004050048086   F   F   F
  0.1366090153525477  0.2334439997241731  0.4049669475474431   F   F   F
  0.5792241930562980  0.6945324754752917  0.3130655986252719   F   F   F
  0.5698457958317036  0.2926815636225015  0.3940741025081493   F   F   F
  0.3860932654212590  0.1903064135904202  0.3261363042648426   F   F   F
  0.7026742205231429  0.1398741389236307  0.4208906160049537   F   F   F
  0.9023349730870933  0.1712881295753093  0.3842835262320747   F   F   F
  0.8957978075370860  0.6887971257634220  0.3154832613494420   F   F   F
  0.7977775785036911  0.7912354932982097  0.4034602421180296   F   F   F
  0.9233509447992247  0.5470835959988989  0.3741053245601051   F   F   F
  0.7504629185662850  0.3571639595723397  0.3221700971231911   F   F   F
  0.8590677096972144  0.4514587764508420  0.3812387131043025   F   F   F
  0.0228280962191292  0.5361461288171796  0.4091532582699742   F   F   F
  0.9483915686993427  0.4120881252628692  0.3701293565790422   F   F   F
  0.9663909081502453  0.7642015848381689  0.3149150164034609   F   F   F
  0.0906970314472630  0.7176171142409871  0.3686431609771859   F   F   F
  0.1347944760357649  0.8385136152825154  0.3803635845669078   F   F   F
  0.9811713403609588  0.1188935081687674  0.3611444502744874   F   F   F
  0.0660913792117910  0.9724759561057255  0.3700235156524201   F   F   F
  0.5500287338586674  0.9111568136523331  0.3570756344030102   F   F   F
  0.3996134791853407  0.7904963857037970  0.3663144117064192   F   F   F
  0.3619775662339819  0.9030781187805204  0.3351239892892650   F   F   F
  0.7184265158000969  0.9881023624311567  0.3722492852746981   F   F   F
  0.5518050040148097  0.0258280764834637  0.3409162747112831   F   F   F
  0.9351612692031424  0.2988277517766562  0.3890505493484966   F   F   F
  0.8186211727187924  0.4257451310574965  0.0516414009535850   F   F   F
  0.6704616133215637  0.4894444074910496  0.0607853786717953   F   F   F
  0.7259394229849434  0.1833042667104863  0.0434400789398168   F   F   F
  0.3111016973395380  0.1009645482976183  0.0656160505471064   F   F   F
  0.1392589336881045  0.2431370906474868  0.0480477598861881   F   F   F
  0.2237627400159639  0.4861636609003739  0.0472661924470472   F   F   F
  0.2520214561960756  0.8223754210648551  0.0975079384972375   F   F   F
  0.4780277976799781  0.2780264368318228  0.0560090188150184   F   F   F
  0.4558561630815419  0.8170463861435664  0.0055957949795626   F   F   F
  0.1649360229529364  0.6700563326158999  0.0363926425860939   F   F   F
  0.4154422475039254  0.9740951525516834  0.0659589395436981   F   F   F
  0.0135001684335379  0.7218969056579354  0.0769475142601408   F   F   F
  0.8815953326432435  0.7969702641555756  0.0717707887333674   F   F   F
  0.7022481544178802  0.9287801821323711  0.0746304619550884   F   F   F
  0.5242595019753011  0.7366751422647013  0.0891187834874501   F   F   F
  0.2218395534213187  0.9605357139859976  0.0514111723989998   F   F   F
  0.9240855696229033  0.6208017136518720  0.0413906970663618   F   F   F
  0.9333119128745793  0.4541074004333723  0.0342746134975727   F   F   F
  0.5954546220947208  0.9628591896612662  0.0948710916636699   F   F   F
  0.7983597146895747  0.9710149932619885  0.0645690959186567   F   F   F
  0.7793155084760386  0.1030317271609178  0.0084042598280618   F   F   F
  0.2148184972031189  0.1563015541107902  0.0698377609425478   F   F   F
  0.9838613674163383  0.0385292806480706  0.0548483107411357   F   F   F
  0.9982305614886045  0.2828442192525600  0.0497551025103320   F   F   F
  0.9320778386543367  0.3992407377758909  0.0942281911161231   F   F   F
  0.1162924927715352  0.9375452204130568  0.0366940646228500   F   F   F
  0.6352175182212463  0.1411815670550070  0.0619248716484790   F   F   F
  0.3824857615879083  0.5247241895673653  0.4095792646480305   T   T   T
  0.4957400000736030  0.5258015622672474  0.5324170479546098   T   T   T
  0.5303096497207918  0.6966246941908238  0.4398139364814000   T   T   T
  0.6017803578096164  0.5010584911912659  0.4082190415469213   T   T   T