 SiO2-Mo8S18                            
   1.00000000000000     
    21.3948993682999991    0.0000000000000000    0.0000000000000000
     0.0000000000000000   21.3948993682999991    0.0000000000000000
     0.0000000000000000    0.0000000000000000   34.1699981689000012
   O    Si   H    Mo   S 
   236   102    64     8    18
Direct
  0.2831556948312416  0.7083597266755075  0.1015681675766473
  0.6093027566835453  0.6235939265223969  0.2009083936179757
  0.1520989006565513  0.3893498590666989  0.0910778623812920
  0.3793533004268526  0.4396240131651215  0.1413713026448005
  0.6761939842503542  0.8477599995430575  0.1354113274846911
  0.1025785549974497  0.4652343589234134  0.3529398628504651
  0.0027309091209396  0.7624950124133741  0.2951368388351285
  0.6576814101100484  0.1416146791567810  0.1964556239658084
  0.2138595975364709  0.9141818783693244  0.2055219876723349
  0.8451738092458627  0.5314466246912243  0.1027252531379458
  0.4126041245406467  0.7680990197870322  0.2094374889763382
  0.5164789158586606  0.5505701896429444  0.2271125807524307
  0.1153063990955709  0.5105024226625312  0.2156717211058291
  0.6087762091168667  0.4959222334245511  0.3323968600844101
  0.4344485679698277  0.6467439201142082  0.2232021909095127
  0.1209594399987732  0.4159274115856898  0.2802392016254986
  0.5206195979086267  0.7334266460364908  0.2372963453884522
  0.3172679819794187  0.9802757034542711  0.1982303884202918
  0.3230427813337894  0.8544930063269601  0.1919152537958134
  0.8140239871451433  0.8735144823616237  0.2732062223474128
  0.9706272821931341  0.2460234922417890  0.3070374671126918
  0.9866115109022265  0.0419349296364466  0.2918236149093691
  0.0027883385843916  0.0194578023134246  0.1744829018648650
  0.0987852962288315  0.2959715945472277  0.1260833919812428
  0.5924469188377768  0.7298454434054487  0.3006362504295370
  0.4242902588966982  0.5815287688265456  0.3409365700441305
  0.7999793444959660  0.3266903082166471  0.1658797754919071
  0.0622416457004354  0.2019112103136713  0.2621420950384751
  0.5226462785166739  0.6880492012581834  0.0892871161418309
  0.1526304504647079  0.6127172788715326  0.2508609139598649
  0.5518933674570322  0.1764376582859436  0.2320344200811531
  0.7165257325361143  0.4126277349253644  0.1927747091190325
  0.5099369787101916  0.9491294480166816  0.1232510838736139
  0.2538781504386579  0.8620924151773394  0.1094331309782148
  0.6260844674224356  0.7470770536576854  0.1741054638853652
  0.7406762571335371  0.9050605217980757  0.0788056099558551
  0.6937697084633644  0.8501757029996325  0.2802059884477419
  0.7197359939286183  0.6803273002785223  0.2003203495831868
  0.2228450650162939  0.2848863203213315  0.1801911604787502
  0.1122939717861128  0.0602558382979243  0.1024987057507505
  0.5648925586963617  0.1796055029355346  0.3218288376218821
  0.7815961841610426  0.6683271738100786  0.3465586430146183
  0.2064383732850189  0.2817703881052875  0.2563951646977167
  0.6149540981721957  0.5342890761981929  0.1302279107028953
  0.3309429723079584  0.4627727576255798  0.2113202444708239
  0.3171730709229151  0.3328629492032447  0.1390715084238154
  0.3033653380971827  0.9709792436160771  0.1212590175370267
  0.4986596548612254  0.5839463333607018  0.1270850527581353
  0.8722901589109969  0.4634251568048870  0.3045022193997186
  0.5920231606382749  0.0620489432365759  0.2931583054721316
  0.4611042285570700  0.1366691587882621  0.1848077843737181
  0.4793415383616420  0.7890667583512402  0.3034120100253543
  0.5133540056464250  0.4092126784524565  0.3111258242662871
  0.0996058897861979  0.8429399580584100  0.3028628688791678
  0.3113866537695971  0.4135997170788406  0.2793700153741061
  0.7803845653079411  0.1294107310749827  0.3399802790515382
  0.4900725996159236  0.6978900347297795  0.1638653028273094
  0.9871753102109624  0.8946758223052893  0.1669858566989385
  0.8855487954947943  0.7289101736597441  0.3234045353974123
  0.6109040247208523  0.5792842312972869  0.2724238750276823
  0.7922331547769275  0.8209247917857363  0.1255659163131943
  0.8820683247706144  0.3371394711866572  0.3076551721032448
  0.8197443585244463  0.4583360985544710  0.1640548045095430
  0.6379053088691762  0.2613266283775006  0.2270930613084621
  0.8959230366370037  0.8140903432342356  0.1625035224802840
  0.8728646793153017  0.0920836727412350  0.2944562927656321
  0.4439177370254710  0.9095740878368771  0.3157736320126864
  0.1063456232176443  0.0582582784717380  0.3072834408022287
  0.0320532427136988  0.4234440851501116  0.2237334727610508
  0.5720078685072940  0.8378935961531739  0.2653930847271683
  0.0030293740655305  0.1306815674095818  0.2109039181287951
  0.2181121756969101  0.2847526070777729  0.1030665054183786
  0.4377566938241159  0.8680422168390831  0.1649723712784952
  0.4122764506368738  0.0057486026081147  0.1523042421526245
  0.1247264524097613  0.1248304604783138  0.2157190620589655
  0.0996000202293195  0.9374219540427401  0.1780040594014264
  0.3026781979417141  0.9021055161726472  0.2600027073074991
  0.3626170166885662  0.7750341713044143  0.1406444570751248
  0.5893637572591434  0.0415426353918066  0.2160780594044847
  0.3179427794609740  0.0846186738458171  0.1507951012490452
  0.4083073324922830  0.3472830409542634  0.2520788087048305
  0.5165507229151325  0.2062376899110480  0.1310014263477483
  0.6962047693960011  0.3272325901459555  0.0618864672439964
  0.8398083053169269  0.7057061288991534  0.1487040698165187
  0.8361563337775312  0.6712037074450687  0.2242912560084915
  0.6206034193638063  0.2579786812998260  0.1065875136434265
  0.3800038478087261  0.7655559085189568  0.0665283816757941
  0.4212127326747973  0.0334994269213523  0.3048755822430984
  0.3120370913194923  0.5466288505029111  0.3187878635017657
  0.2454609453920928  0.1211926466383266  0.2135861304821396
  0.7399556074491136  0.5480649212488007  0.1436181811342020
  0.6295598272715012  0.0581801646982803  0.1430410633348931
  0.8139446720669734  0.9617889919920007  0.2179199059978500
  0.1628534281905818  0.3596086539233744  0.3441198198938704
  0.2407786155645082  0.6965432261315442  0.3123555381317851
  0.0443153075038458  0.7196813412522760  0.1507015945467097
  0.6659661703462634  0.6473118799054163  0.1345285854306267
  0.7067803955666530  0.0219068204869455  0.2004470303600796
  0.6462894332658847  0.8607388407269539  0.2075934397356701
  0.4105455708607691  0.3539529245711476  0.0872575822974611
  0.5197589819502814  0.2629331794605555  0.0606267267573267
  0.9116784746833690  0.8811303846844802  0.2268848031048263
  0.5272673170164360  0.3344800541363759  0.1236907511281613
  0.4039406911436245  0.1579065300991775  0.1171038508571742
  0.7680911447804341  0.7678469913009571  0.2458647064769390
  0.6333541048031300  0.9800239680191390  0.0832180718635644
  0.2139065215730477  0.4668780124507693  0.3224322428320084
  0.0539162738702821  0.6777457136464144  0.2218975575043814
  0.8872384460385192  0.9692928029630246  0.2803652541467269
  0.1833424062847880  0.0284993347608824  0.1798307640688709
  0.3366043901087020  0.0855457235261444  0.2610254715093175
  0.0419049434948333  0.6169122670929796  0.2890212196165915
  0.9168175820777289  0.1084283841706306  0.1588167745167137
  0.4462525141160079  0.1401703117200452  0.2617222901093638
  0.1801398996823736  0.1375851197670634  0.1459552224301018
  0.1323599656641074  0.9871246429753054  0.2449418092410861
  0.3193237004666900  0.8848632892262309  0.3362974623515033
  0.2960646217140504  0.1358336013780053  0.0799062393373838
  0.8651750882206263  0.2710737302110166  0.1094056912352691
  0.8880534896582754  0.7647967123531615  0.0894516422674337
  0.1151684121552067  0.7189031816048389  0.2845203112012872
  0.4748696659698834  0.8373916768593876  0.0936991872381894
  0.4333744298747375  0.0124405266836141  0.0736245168720839
  0.2191816574777267  0.8392855905523703  0.3046604060396049
  0.8066187651514458  0.0599783047973364  0.1677455697679011
  0.9437462497695764  0.6703602766011840  0.1859252431636616
  0.3169502026146339  0.2884076488870633  0.2918345903933128
  0.9167472979386461  0.0498269132543511  0.2271696239327763
  0.7995043223781844  0.5618810358882905  0.3075348517354756
  0.3552304032119649  0.6591755309676228  0.2951006435384357
  0.4964156886630881  0.2850260043553172  0.3299967610580632
  0.6609896254173079  0.1150087697466825  0.3464860450666098
  0.9202601926560808  0.5796580030339339  0.2920538081070552
  0.9710677827668918  0.5481031432622512  0.0998774797868092
  0.5112642018789689  0.9819599552676943  0.2655737975140324
  0.4029671555841176  0.6650678773767698  0.1122718121172970
  0.3808621990737288  0.1409710435366608  0.3281338179452621
  0.4737036060472353  0.3669390961809781  0.1880765290299891
  0.0222761757774204  0.5056074788677548  0.1640891817482757
  0.0813172930511679  0.4904764942283111  0.0962481755452282
  0.2050902944378850  0.5786257706743679  0.1839826447546129
  0.9816818465124949  0.2542665641159090  0.1341710314099958
  0.1943427720519246  0.4867810170643072  0.1309619759097075
  0.3664030096525260  0.8918966250421104  0.0759595352864162
  0.3067215723072338  0.5366864627470308  0.1497402342062604
  0.7397963118917127  0.4022332033586750  0.1168037929958713
  0.1562079793446059  0.6964984889128415  0.1165856385063063
  0.5638624657025042  0.6155633346258238  0.3386258482264027
  0.6131228951470438  0.2915048921636056  0.3018364378613065
  0.4521224789900261  0.2468411364884683  0.2175000278824988
  0.2631960733268620  0.1771150227023517  0.2807544808248873
  0.6867333038611948  0.5918003737692485  0.3329567682831440
  0.5318046114668605  0.3259458732830147  0.2496350289609107
  0.3985815004018617  0.3624074734403481  0.3277888733977347
  0.2978928316321093  0.2094020140661652  0.1410733929287664
  0.5969355655379867  0.3902616581055235  0.1785736761609830
  0.5374294126778997  0.5108009858176695  0.0695055944716954
  0.2373845082503585  0.3891929528910116  0.2204653244986327
  0.6398598267518582  0.3826275319704621  0.2498299122256105
  0.0408234006853376  0.9600777666405717  0.1111428004141141
  0.8528203286783692  0.5841200925742281  0.1710040398402121
  0.6893252192060728  0.5702120444764471  0.0733279201626652
  0.6281413921884649  0.4971628636642183  0.2158532514644649
  0.0714700515441036  0.1749920234965659  0.1149590250675795
  0.9060581919178672  0.2688853339595959  0.3722357718368828
  0.8340695377967958  0.1158317299893505  0.1015031443780395
  0.4999401245682146  0.0786284666596082  0.1220386829808648
  0.6293745592630339  0.9495712025854333  0.2628079128381917
  0.2280367071861519  0.5986488892647498  0.1071949519538900
  0.0698845818145743  0.2266456014659520  0.1864008137583433
  0.7623077289630973  0.9399723559265214  0.1513575873920460
  0.8210982772500638  0.1921910909349248  0.1625615587515496
  0.2134306892158810  0.2508519212991753  0.3310776021211383
  0.0257641489577614  0.1120423978708730  0.3530387306546379
  0.7241739370962690  0.0612689362459590  0.0937493990539558
  0.3043372861759240  0.4141308944840993  0.0794478021379539
  0.7755948268711229  0.7875343548761624  0.3232732756222962
  0.0739257175126849  0.6036932400028603  0.1278324310217872
  0.8537360586207120  0.2145624145624134  0.3103404857623255
  0.1257297690212120  0.3452678611487555  0.2148478388312704
  0.0378018653742155  0.3247790904342908  0.2681159801075181
  0.6577317322854448  0.1616918169048288  0.2722233508942065
  0.2299319892613476  0.5073451199122346  0.2462674384983812
  0.7398938480601559  0.6547163474372871  0.2739600373172031
  0.7421906111798815  0.2502320476384294  0.1167003042040403
  0.0081946609344095  0.5004945271393157  0.3094602873088199
  0.1984242234327113  0.5881588097026355  0.3400423430224445
  0.3229542296677450  0.7832677367279570  0.2870480845743620
  0.0892717108490323  0.2618984895469803  0.3270480186424251
  0.4043422513943133  0.5529748528633034  0.2658260856507129
  0.7406029195399786  0.0165103616054346  0.3566852000365093
  0.4153387206103137  0.5375026452399101  0.1870859301655244
  0.0505652562851843  0.6933619704343835  0.0750302164328736
  0.9967309235810730  0.5401150248866070  0.2356657519246827
  0.5168411166182304  0.4593930578234125  0.1398648736723386
  0.9894654778891790  0.7846165722249386  0.2068179244843570
  0.1708284399276991  0.9522575508823460  0.3133153020004426
  0.5574345686290907  0.8431326327553674  0.1520213219245058
  0.2206292969051604  0.0565150137804431  0.2797035588727962
  0.3380197633512127  0.7285850575020170  0.3576973123179776
  0.2602351184131442  0.5117523284544725  0.3879415714468170
  0.4940633957743000  0.3773423670530470  0.3824828977162609
  0.1453764710036670  0.2702914604538175  0.3961299186600824
  0.5959701771470715  0.2631154561121453  0.3767974099462241
  0.7287580256528223  0.1044952736987829  0.4113506759848900
  0.9001274472679683  0.1368915832664899  0.3647534392380897
  0.8313635070128652  0.7581973352470650  0.3911323161724925
  0.8813246181706225  0.5454493850817147  0.3641159168701320
  0.8648809929603982  0.3989195858518663  0.3720686686458337
  0.7710924164223386  0.3981358149308910  0.3169386556690264
  0.0089476060921518  0.5370193940544974  0.3821525426672441
  0.9944261835561017  0.4126814463550756  0.3661918543419713
  0.5436751693637348  0.8623189692078687  0.3534366635966317
  0.0868868725552144  0.7583353000636920  0.3568876055631913
  0.1540906937409437  0.8745605018570072  0.3706853351833350
  0.0333012657338567  0.9831873839116875  0.3515560250527345
  0.4291686938045985  0.8208644387800648  0.3714515984451240
  0.5209973666579024  0.9894941407854821  0.3451326852979243
  0.6587589001008629  0.4443990200291468  0.0619776195882089
  0.7760909824864743  0.4205983229057471  0.0423617400397049
  0.6866971412809478  0.2030675067575366  0.0525790851592208
  0.1276823082973883  0.2862037763104744  0.0496765099784896
  0.1798005316775279  0.4940852541210424  0.0517015305106058
  0.4355185526576557  0.8485095404174462  0.0192510688143595
  0.2080403710346405  0.6762410553343989  0.0457655513231214
  0.2642928392928958  0.9458335416689573  0.0490861360830770
  0.8999337499816804  0.5786771917470723  0.0389496055349835
  0.9087587029343219  0.4578277002262536  0.0591428526164824
  0.8217606629863033  0.0090561380841101  0.0580991998774647
  0.7808137834106238  0.1220294818335753  0.0338733497288855
  0.1702897627762844  0.1596014237334743  0.0691357873262062
  0.0264200674527573  0.0286715184432749  0.0463273430952684
  0.1318186493550413  0.9663915176278902  0.0552929750557861
  0.9543344157856652  0.2791266568286132  0.0577724567320465
  0.9458732249691827  0.3676425940710923  0.1152306139948952
  0.6123829544917138  0.1024537592338187  0.0694047453357254
  0.3531032255195025  0.3850472800105869  0.1122645758761795
  0.2182387788045153  0.6701986790828511  0.0929924333987438
  0.3147267283789408  0.7180233259522689  0.3117665209566393
  0.3571857962075837  0.7255414269032701  0.1052161555308975
  0.2930172810720756  0.8534272203898514  0.2964681586027350
  0.4427609531619618  0.5715111251154701  0.2260545960885606
  0.3966454557090907  0.1007230415516581  0.2887479366554543
  0.6272169388848328  0.1852205948196088  0.2306653325305933
  0.9167402025756518  0.0388877135203151  0.2744016912711219
  0.0739463121976411  0.7717454945691414  0.3097719743035741
  0.8178417024288904  0.7358321539710483  0.3464124966709642
  0.8144124588992596  0.5301834744201074  0.1466107646433964
  0.4135017982281906  0.8345313260953751  0.0640530884198080
  0.5289562429045387  0.3895419733150730  0.1573871685995617
  0.4730741196395469  0.3573092370887134  0.3366711314682098
  0.6530988379590738  0.6757984524089196  0.1782486792334676
  0.4646220925116544  0.7120470850287397  0.2082963719905270
  0.7705696733955901  0.3980959870188926  0.1600615865955400
  0.8529824082304811  0.7764087843188431  0.1318401267866082
  0.8567215729980682  0.9215608764679083  0.2485504137341969
  0.8693554869951338  0.5374550797662705  0.3171803996165136
  0.6193093392182470  0.1294644717724972  0.3082312993169626
  0.7736419443644459  0.9957684627617582  0.1837907595161292
  0.5917948414032586  0.5625469423971736  0.2277995766937017
  0.6178860367492757  0.5683076120582473  0.3189108387759958
  0.9605575614185278  0.0762068218757320  0.1922805270942771
  0.3290803186431336  0.1464390064870105  0.1233502667992025
  0.2893322086408021  0.9131624085497464  0.2136518308764974
  0.7433032915909513  0.8793358529552677  0.1242794755011301
  0.7659185002327014  0.6935656583867089  0.2366908403390663
  0.9469884112887816  0.8440153274423230  0.1918347873940740
  0.7279956053766075  0.0907551847721117  0.3641724013568171
  0.1602754387100013  0.8785638155063118  0.3229961391575402
  0.0764284774750311  0.0046664156320426  0.0792929584281275
  0.4654372242747682  0.3205252132555376  0.2257139017088722
  0.0406710375789325  0.2582626828224682  0.2909743602495681
  0.4771157376060758  0.1748334750277877  0.2244209624744190
  0.1985328514639807  0.3247371742983311  0.2173874540384422
  0.0911025105001732  0.6560794392889381  0.2611767087557312
  0.1338595260687210  0.1326606058833724  0.1076746380735390
  0.0416029048052507  0.4951263356649835  0.2092935040254239
  0.3841618159274933  0.8168953317122490  0.1775231178617824
  0.4734010330762760  0.9789528426402778  0.3074650705945802
  0.6354779691660362  0.8745775282353409  0.2542075047569104
  0.2644314493428223  0.2778692211587794  0.1405467914719461
  0.6486832179182657  0.0528024919621620  0.0968521450128425
  0.5816847950823761  0.0085090666569647  0.2587549085286344
  0.1531480701566511  0.4646169682201934  0.0925953869398064
  0.5417322241096681  0.5225445702138075  0.1165165607198082
  0.4639587973566976  0.0114263686029771  0.1175028986537009
  0.8078070199193654  0.2603791994482744  0.1398561529039979
  0.6877958336307450  0.2605401060626825  0.0841780606609791
  0.5671786305505051  0.2540752369938110  0.3328777454289056
  0.4744748263663451  0.8447191462465015  0.3366434147445784
  0.0650058331426994  0.1714287574584577  0.2189027794174494
  0.1580273362261452  0.0140552861061968  0.2865852767572278
  0.8431890500781016  0.1205882094487448  0.1489273197049977
  0.9924918876144004  0.5598977149844965  0.2814711579585460
  0.2955809056990060  0.9163808437545211  0.0884633440014524
  0.8517401609811783  0.1425371314075909  0.3269805027465787
  0.2463976632866698  0.5297021116421633  0.3415902104179141
  0.0323053529233032  0.9538870991643309  0.1584772783344734
  0.1579842556045383  0.9660435318153811  0.2022003719207622
  0.2648029563720176  0.1094212032380373  0.2591608764116607
  0.0377499534291945  0.5370388408450084  0.1220044987400898
  0.7903368081163696  0.0749154771043889  0.0720523031143400
  0.3567682456532082  0.3534062842306415  0.2873407750361426
  0.0815834015449125  0.6783214568993626  0.1182127422053348
  0.1834763783640694  0.1033624743293055  0.1885394782197596
  0.2755876855772556  0.4452212703713688  0.2411097955655963
  0.1494143126524578  0.3140771156866459  0.0922218652399848
  0.5408393975961029  0.7711085420084095  0.2771604158287505
  0.2501659813128875  0.2498550998614433  0.2897120609524175
  0.7188859373319816  0.3986938033001572  0.0707687705755742
  0.8686529107812601  0.6573312355723839  0.1818896886456387
  0.4951857266266215  0.8749236304322662  0.1339256181340075
  0.3736698689929017  0.5858283605047574  0.3051325779003192
  0.6461289239198225  0.4234481827585195  0.2088020855058274
  0.8463464216924836  0.3990695724438482  0.3242108503229244
  0.7629677946949154  0.8195301760448335  0.2808723999565974
  0.6265602690259722  0.8232222658042768  0.1680054486590823
  0.6072388972007670  0.3144461882483416  0.2562546134305119
  0.4716522985189526  0.1454372216361249  0.1378142359222584
  0.5454455626852228  0.2645955901146342  0.1054690254960363
  0.4783725677913865  0.6576347858269238  0.1233631382109304
  0.0280149384824021  0.4774756300659895  0.3531419886192023
  0.9038040312200671  0.2683830620258881  0.3238742385447888
  0.0374513527240256  0.0491615684126934  0.3272253814928090
  0.3365857996098149  0.0106906751792597  0.1560297518686900
  0.3582091954523672  0.4938760660736796  0.1719408208102135
  0.1518531995425232  0.2850936685942809  0.3495526866220084
  0.1497000026725073  0.4266358834074821  0.3241569528048597
  0.6778671724890759  0.5749619673012499  0.1210284587942900
  0.2329521692108940  0.5498418315238072  0.1431848173611588
  0.1766586086670825  0.5521784917510332  0.2251583558996946
  0.0065567115469940  0.7136006422339307  0.1922711307725202
  0.7517016743408391  0.6194893221429948  0.3153211842588720
  0.9376322995376658  0.2939972602813253  0.1038165187536479
  0.6473840460826598  0.0657893950878809  0.1885151071158244
  0.0798784894595341  0.3777189650502266  0.2471889679239872
  0.9077744484446987  0.5309038625459046  0.0759793394554694
  0.0550848831618625  0.2383156298353151  0.1403322942500239
  0.7293718737684198  0.5840742067500246  0.0631097565586731
  0.5671165996548995  0.4797470009093741  0.0596266838347837
  0.3194420931364305  0.4081815484583274  0.0529022964909967
  0.4522145472001844  0.3531848972049795  0.0992143155465897
  0.4670995155887361  0.5958847211055264  0.3366012615432762
  0.5672778702660376  0.6223626507298564  0.3668483867440166
  0.5737077101801679  0.4708311305369395  0.3224661434738988
  0.2079628802770512  0.7207402690873999  0.2994070130729328
  0.3063757014839393  0.7439657622832266  0.3757063444021409
  0.2134041362504797  0.6281671752637241  0.3287375173363546
  0.2512898227414063  0.4682087172696892  0.3940805135463006
  0.5216306767421797  0.3953416096865245  0.2842422639143775
  0.5293817026064250  0.4062351506496975  0.3800334235465449
  0.1225206865264646  0.2327512305178085  0.4031232785550455
  0.5787576690267320  0.6919898700116545  0.3144321683111359
  0.5722569756236439  0.2878320077803605  0.3954679998313247
  0.3727672035459856  0.1853297976595132  0.3251510520139036
  0.7042641299925508  0.1395566915748988  0.4207396181711523
  0.9001180750235752  0.1741186881223909  0.3814985384372158
  0.8980394893348884  0.6869907161770618  0.3154479530549321
  0.7990040526960748  0.7492030719801848  0.4103156437241922
  0.9245158101101609  0.5487226155448953  0.3738931434097801
  0.7472698630878893  0.3598230966168290  0.3194254968800579
  0.8473676579677453  0.4323962672922770  0.3881607783671282
  0.0227396603560153  0.5350394398578427  0.4091880940165733
  0.9490546073313272  0.4112668429084827  0.3709920093603256
  0.9645903276825158  0.7655115362764742  0.3108655247708593
  0.0858547325057935  0.7151360934573374  0.3655616577159497
  0.1334934734899338  0.8361805209312411  0.3793474811191914
  0.9816539390558058  0.1209529219856103  0.3594397901548496
  0.0653161134867935  0.9735520235891061  0.3707570374615762
  0.5497941027590989  0.9073183374175617  0.3573800267251565
  0.3981736586147963  0.7879671793361449  0.3660987461162534
  0.3616286291615176  0.9021193542223176  0.3354763873377756
  0.7271815064502286  0.9866472667601102  0.3762660149041695
  0.5511678938706650  0.0231547650782656  0.3416373930254632
  0.8944904845581720  0.3082619986864527  0.3847062860003684
  0.8189288581916615  0.4242181383158126  0.0518112780298829
  0.6706015457798737  0.4889168233696460  0.0602349557250352
  0.7254304939408167  0.1825320604517804  0.0433989288941762
  0.3126227101403613  0.1014746434329670  0.0643784467321853
  0.1399208459452655  0.2421228031144634  0.0468965334962264
  0.2243945314189383  0.4885584926653214  0.0477225657689521
  0.2512013219619633  0.8201871907087559  0.0987655178115618
  0.4768844281586184  0.2756422951026850  0.0556273550329986
  0.4544297726417710  0.8150674087924529  0.0042530830429461
  0.1664485397821215  0.6680873652719138  0.0356337444127986
  0.4132959062428092  0.9738486662691069  0.0649094835141597
  0.0140762706328850  0.7204267800852673  0.0757810107037783
  0.8840355379446920  0.7987595036320799  0.0707875728038151
  0.7015241013521958  0.9289713963683175  0.0744543813800699
  0.5254977919016723  0.7334314371219501  0.0891748169130360
  0.2198914685728553  0.9574346944667642  0.0514392126965644
  0.9251882648907339  0.6163292116981318  0.0392771258049372
  0.9341815894199706  0.4498239983196620  0.0360974315060174
  0.5947026259896439  0.9621936056667891  0.0937062647555465
  0.7979804231778561  0.9708882334436907  0.0646596345146240
  0.7787396022553142  0.1022520929102867  0.0083614384634401
  0.2162266142856127  0.1536734550896339  0.0695459970119866
  0.9839401936463597  0.0376915240257097  0.0545446281071344
  0.9980623433776656  0.2816324862531166  0.0500940897738295
  0.9321384451157240  0.3983845292685975  0.0957608767264931
  0.1166635479915462  0.9382914654250192  0.0350956941518705
  0.6352768604128846  0.1409063582542472  0.0618982238929853
  0.5919904490112387  0.4709287254174598  0.4627303972470981
  0.4659986108377687  0.4302253285264339  0.4467179921394790
  0.4926939452296734  0.5459146669276093  0.4756075466912957
  0.6482252195415940  0.6238202056266607  0.4520063026203629
  0.3581009434805799  0.4963190517288542  0.4688328126364806
  0.3389129760229994  0.3778043052664216  0.4364484546673666
  0.7272402153730094  0.5218293735956618  0.4714301033998046
  0.3743636258497649  0.6236388975587212  0.4972228146961601
  0.5722181180334196  0.5192671833134067  0.5192577718656146
  0.5552703348283815  0.3734377299587647  0.4729901256458947
  0.5232285635338582  0.5077169686988779  0.4133724958789490
  0.6643547478522920  0.5305359498237358  0.4167710127778328
  0.3834716388398340  0.4588830940111396  0.4030982531332316
  0.4354957795095738  0.4642763428142035  0.5101896700657220
  0.4022645949842671  0.5895477789102692  0.4362499342716786
  0.5462304112611945  0.6459691731023379  0.4557259391744742
  0.7054905996858016  0.6085965478022790  0.5087420126880622
  0.6919822218377164  0.6967856785040853  0.4205585105077267
  0.2823382912536685  0.4211843047216423  0.4856808712514402
  0.3039861726055348  0.5535924928885018  0.5190960275888257
  0.2822401949521115  0.3290922726692888  0.3955422664308305
  0.4187432595437336  0.3242783755038296  0.4608297356080365
  0.8227166443445506  0.5176582304730514  0.4535958378237702
  0.6898708288721132  0.4323585722327282  0.4956189004614113
  0.3330309477430653  0.7139908569238654  0.4938842716830972
  0.4612568740604433  0.6196283599761899  0.5322967518252408
 
  0.00000000E+00  0.00000000E+00  0.00000000E+00
  0.00000000E+00  0.00000000E+00  0.00000000E+00
  0.00000000E+00  0.00000000E+00  0.00000000E+00
  0.00000000E+00  0.00000000E+00  0.00000000E+00
  0.00000000E+00  0.00000000E+00  0.00000000E+00
  0.00000000E+00  0.00000000E+00  0.00000000E+00
  0.00000000E+00  0.00000000E+00  0.00000000E+00
  0.00000000E+00  0.00000000E+00  0.00000000E+00
  0.00000000E+00  0.00000000E+00  0.00000000E+00
  0.00000000E+00  0.00000000E+00  0.00000000E+00
  0.00000000E+00  0.00000000E+00  0.00000000E+00
  0.00000000E+00  0.00000000E+00  0.00000000E+00
  0.00000000E+00  0.00000000E+00  0.00000000E+00
  0.00000000E+00  0.00000000E+00  0.00000000E+00
  0.00000000E+00  0.00000000E+00  0.00000000E+00
  0.00000000E+00  0.00000000E+00  0.00000000E+00
  0.00000000E+00  0.00000000E+00  0.00000000E+00
  0.00000000E+00  0.00000000E+00  0.00000000E+00
  0.00000000E+00  0.00000000E+00  0.00000000E+00
  0.00000000E+00  0.00000000E+00  0.00000000E+00
  0.00000000E+00  0.00000000E+00  0.00000000E+00
  0.00000000E+00  0.00000000E+00  0.00000000E+00
  0.00000000E+00  0.00000000E+00  0.00000000E+00
  0.00000000E+00  0.00000000E+00  0.00000000E+00
  0.00000000E+00  0.00000000E+00  0.00000000E+00
  0.00000000E+00  0.00000000E+00  0.00000000E+00
  0.00000000E+00  0.00000000E+00  0.00000000E+00
  0.00000000E+00  0.00000000E+00  0.00000000E+00
  0.00000000E+00  0.00000000E+00  0.00000000E+00
  0.00000000E+00  0.00000000E+00  0.00000000E+00
  0.00000000E+00  0.00000000E+00  0.00000000E+00
  0.00000000E+00  0.00000000E+00  0.00000000E+00
  0.00000000E+00  0.00000000E+00  0.00000000E+00
  0.00000000E+00  0.00000000E+00  0.00000000E+00
  0.00000000E+00  0.00000000E+00  0.00000000E+00
  0.00000000E+00  0.00000000E+00  0.00000000E+00
  0.00000000E+00  0.00000000E+00  0.00000000E+00
  0.00000000E+00  0.00000000E+00  0.00000000E+00
  0.00000000E+00  0.00000000E+00  0.00000000E+00
  0.00000000E+00  0.00000000E+00  0.00000000E+00
  0.00000000E+00  0.00000000E+00  0.00000000E+00
  0.00000000E+00  0.00000000E+00  0.00000000E+00
  0.00000000E+00  0.00000000E+00  0.00000000E+00
  0.00000000E+00  0.00000000E+00  0.00000000E+00
  0.00000000E+00  0.00000000E+00  0.00000000E+00
  0.00000000E+00  0.00000000E+00  0.00000000E+00
  0.00000000E+00  0.00000000E+00  0.00000000E+00
  0.00000000E+00  0.00000000E+00  0.00000000E+00
  0.00000000E+00  0.00000000E+00  0.00000000E+00
  0.00000000E+00  0.00000000E+00  0.00000000E+00
  0.00000000E+00  0.00000000E+00  0.00000000E+00
  0.00000000E+00  0.00000000E+00  0.00000000E+00
  0.00000000E+00  0.00000000E+00  0.00000000E+00
  0.00000000E+00  0.00000000E+00  0.00000000E+00
  0.00000000E+00  0.00000000E+00  0.00000000E+00
  0.00000000E+00  0.00000000E+00  0.00000000E+00
  0.00000000E+00  0.00000000E+00  0.00000000E+00
  0.00000000E+00  0.00000000E+00  0.00000000E+00
  0.00000000E+00  0.00000000E+00  0.00000000E+00
  0.00000000E+00  0.00000000E+00  0.00000000E+00
  0.00000000E+00  0.00000000E+00  0.00000000E+00
  0.00000000E+00  0.00000000E+00  0.00000000E+00
  0.00000000E+00  0.00000000E+00  0.00000000E+00
  0.00000000E+00  0.00000000E+00  0.00000000E+00
  0.00000000E+00  0.00000000E+00  0.00000000E+00
  0.00000000E+00  0.00000000E+00  0.00000000E+00
  0.00000000E+00  0.00000000E+00  0.00000000E+00
  0.00000000E+00  0.00000000E+00  0.00000000E+00
  0.00000000E+00  0.00000000E+00  0.00000000E+00
  0.00000000E+00  0.00000000E+00  0.00000000E+00
  0.00000000E+00  0.00000000E+00  0.00000000E+00
  0.00000000E+00  0.00000000E+00  0.00000000E+00