 SiO2-Mo6S14                            
   1.00000000000000     
    21.3948993682999991    0.0000000000000000    0.0000000000000000
     0.0000000000000000   21.3948993682999991    0.0000000000000000
     0.0000000000000000    0.0000000000000000   34.1699981689000012
   O    Si   H    Mo   S 
   236   102    64     6    14
Direct
  0.2820699753884141  0.7119422080854662  0.1001455274865539
  0.6117075856568405  0.6249928170186601  0.2007722100765003
  0.1505777921480266  0.3909770794121580  0.0915708340318350
  0.3801820703623224  0.4392053988968160  0.1412613827291912
  0.6782677840998160  0.8485078932471077  0.1355385676649775
  0.1017543846449399  0.4658647455352634  0.3519843605395775
  0.0038802951902797  0.7602616779570210  0.3004812714082268
  0.6587975782731292  0.1444452416475983  0.1974236285430853
  0.2148788635365215  0.9159408782922582  0.2057671355546880
  0.8445208897848950  0.5343823879826360  0.1019512988788059
  0.4121380907142237  0.7688627394801131  0.2077072140078306
  0.5184634529972227  0.5518050793100893  0.2249345048980608
  0.1154687288544409  0.5125407576501944  0.2135505952004740
  0.6095291356999100  0.4992797537821853  0.3359023100283043
  0.4373331766597892  0.6482058553486270  0.2200660582819715
  0.1250043366847694  0.4176171699007751  0.2798206187743663
  0.5207557199733722  0.7370974760859926  0.2357005480637486
  0.3179606005510729  0.9832216605380520  0.1992145350813367
  0.3241199776219882  0.8576446554201125  0.1917737192316610
  0.8129020145618358  0.8750354046242705  0.2735706323113101
  0.9751370846437835  0.2465728391274665  0.3075932842947235
  0.9867835118337686  0.0417261656269721  0.2919902827545199
  0.0041542060092030  0.0212242468725991  0.1756474939371889
  0.0976134988960562  0.2964724769732637  0.1258072234701889
  0.5922056105314170  0.7330247501307114  0.2989615403249598
  0.4228355148830003  0.5835396380500092  0.3393576120540979
  0.8012453230281215  0.3276717029826374  0.1645715503179320
  0.0656314029113875  0.2044351446550345  0.2618520706088690
  0.5208261745769016  0.6900090336421740  0.0867463928749430
  0.1531545824964090  0.6134840042356546  0.2500783440747569
  0.5520887372596217  0.1774487618087045  0.2321251423523243
  0.7189370448730578  0.4130085907167986  0.1926448079268367
  0.5101759626850868  0.9507538186933681  0.1228149179911909
  0.2535977790549183  0.8635875308345065  0.1083900156444971
  0.6270456504431855  0.7488911340630182  0.1742922109201981
  0.7414630689310758  0.9058478945395696  0.0785839695818192
  0.6923746041593457  0.8511626199218857  0.2793234865427320
  0.7214223226409313  0.6815900140520715  0.1991549317108678
  0.2235627953199485  0.2835737087648300  0.1811689949066442
  0.1132763801157945  0.0610162097103178  0.1017293759293505
  0.5643352490292478  0.1838079469458364  0.3223266690412235
  0.7825599334634181  0.6686452680804139  0.3461450362463405
  0.2065084272245717  0.2848418549925257  0.2576567374395403
  0.6155682647533406  0.5370210873170150  0.1293644576960625
  0.3313188983471840  0.4653117012619550  0.2109692595925044
  0.3165660341108265  0.3336272763887795  0.1392714630877440
  0.3029203972678658  0.9720293698450061  0.1222586535886412
  0.4990769275352461  0.5865696549760321  0.1257576490918696
  0.8691194947509727  0.4623952362347705  0.3004197367745627
  0.5904525421382200  0.0649791014955415  0.2936881679582710
  0.4600790132010054  0.1398554852903981  0.1851544084152557
  0.4788838667527366  0.7911030532424421  0.3025909291728118
  0.5131540222024005  0.4149579011863228  0.3194057217592010
  0.1007414161689086  0.8420243861410939  0.3038465845501389
  0.3097644617563035  0.4143811713221559  0.2785670504737057
  0.7806881807250734  0.1294071937039162  0.3403393558324942
  0.4916154998414395  0.7021293839767103  0.1614952612861228
  0.9882702648351548  0.8962938070514063  0.1685265098249844
  0.8859406144496320  0.7351060152834868  0.3306015886031041
  0.6125092255946760  0.5751571278375818  0.2715171271298250
  0.7951276512600182  0.8236261253768045  0.1256086113631147
  0.8864066484805522  0.3364071528292117  0.3097278987821292
  0.8206835955109651  0.4597808472689931  0.1627786411742291
  0.6369906169620534  0.2640504466849132  0.2281026562472628
  0.8984721489389346  0.8141799018510900  0.1630545079238644
  0.8740960651948367  0.0936171959125654  0.2953315586934053
  0.4440518905301864  0.9114170538970304  0.3156397546611908
  0.1063439349285629  0.0589951628860998  0.3074393048336957
  0.0343929105025821  0.4243734570829073  0.2235587864918076
  0.5706587167664463  0.8418467192959371  0.2649018722003496
  0.0030325548983374  0.1315515893031990  0.2130157768881387
  0.2169187811749067  0.2865180021005049  0.1039560893042444
  0.4387026905349488  0.8691762645438642  0.1641012284550710
  0.4122922516272888  0.0069066837478261  0.1523778917673214
  0.1244547435993185  0.1262504699379813  0.2145042340109718
  0.1008951110036223  0.9387133970558342  0.1774191408186345
  0.3037599229095848  0.9045638607493793  0.2603899480471801
  0.3608513958610311  0.7787380858713323  0.1394136923592135
  0.5903360999611069  0.0443260348697397  0.2164138877632517
  0.3176286364534051  0.0861083093054059  0.1510366193038972
  0.4086943989602277  0.3531321106849062  0.2500863917491217
  0.5160000300655924  0.2083276984135576  0.1316889762981962
  0.6960747807871099  0.3279800730225421  0.0619069431778228
  0.8406658866005159  0.7073086675256761  0.1486755112922667
  0.8371412959508968  0.6733956877508115  0.2241949945665102
  0.6206090438703186  0.2581072219049571  0.1064112283542517
  0.3798877834978565  0.7680786100475154  0.0656222006049928
  0.4219465406681790  0.0357684808008378  0.3047139969098420
  0.3116711175387088  0.5501618776401627  0.3128629936901912
  0.2452158584256468  0.1242189658816172  0.2136851680153599
  0.7402891991451173  0.5502618063953116  0.1437989236279849
  0.6307360335076210  0.0614419044071859  0.1434544302984190
  0.8140997139500957  0.9623621738480601  0.2177363735119795
  0.1655273672471669  0.3626056856112661  0.3451711541774780
  0.2435249578072610  0.7004061735370085  0.3109623313128565
  0.0450095825450534  0.7215035870663156  0.1517105360786542
  0.6663557600760623  0.6497136175499152  0.1334951878742129
  0.7078585564281060  0.0242676057908715  0.2005174316438516
  0.6455631283713270  0.8639677069991547  0.2069810463832174
  0.4118261259662809  0.3523006483189557  0.0881742788721515
  0.5194914990861813  0.2627086558646985  0.0605949163217977
  0.9115640359099079  0.8817180334480095  0.2277531465344494
  0.5281424806977683  0.3362237060134387  0.1227084822603796
  0.4039216180145186  0.1583746721916822  0.1168764008276222
  0.7679387103648559  0.7702791375748623  0.2446358341279757
  0.6340547525029415  0.9810011230145453  0.0846481858991970
  0.2153850147804702  0.4702443083171349  0.3236122164839200
  0.0536719893138495  0.6786982411608424  0.2229595053511585
  0.8862909489802008  0.9705917333990502  0.2807169127972283
  0.1847237371312813  0.0298328650725071  0.1802230947728617
  0.3360926921919459  0.0877071028375442  0.2614211960507288
  0.0428563868925270  0.6146652918531421  0.2889880046410467
  0.9184851123060789  0.1101126854381994  0.1591384468141383
  0.4458424694916544  0.1428540960033425  0.2619411253213620
  0.1810858990931064  0.1381517472777150  0.1452935385307234
  0.1318270243359087  0.9878563091839234  0.2447369163257067
  0.3189517135845255  0.8878591534555282  0.3371143569959563
  0.2959840293872019  0.1359179305071083  0.0797622881906743
  0.8646778595634513  0.2714936696888411  0.1076804610176858
  0.8905775238141492  0.7666960317777349  0.0898216739015982
  0.1148145752262460  0.7174842845389837  0.2859985589931126
  0.4749946440608470  0.8391130690260097  0.0926968769247872
  0.4332601044518203  0.0141390709645773  0.0737614707428664
  0.2204561094437768  0.8410902794457804  0.3046200105584312
  0.8082966387401516  0.0609546080249434  0.1677479690897029
  0.9445291840344777  0.6714679080184215  0.1859813725222927
  0.3198138753541682  0.2888117937851178  0.2887497622234814
  0.9164526763772463  0.0508554313529492  0.2275934277491754
  0.7990567962533378  0.5628768104521368  0.3059075690211196
  0.3578999912452550  0.6625540900523680  0.2921822953386832
  0.4998914608436698  0.2908533780038258  0.3348573406063171
  0.6602335303767892  0.1178457910405685  0.3466231101145033
  0.9204802009275940  0.5787963611302134  0.2917798483789595
  0.9709224994591000  0.5499295843081937  0.0990681352589119
  0.5116289897784002  0.9835889943116289  0.2654194826483761
  0.4021124301863067  0.6679909845904156  0.1119768287484686
  0.3805428579421605  0.1425202808821967  0.3283873852334490
  0.4777987020275925  0.3682145770442665  0.1879010110140624
  0.0210171494814883  0.5057181407221858  0.1632698805531941
  0.0816345621548439  0.4933607134252107  0.0958546582486143
  0.2067143616553003  0.5796100226822049  0.1833451667509884
  0.9806095564021304  0.2548134863598617  0.1326645514954747
  0.1952043794132979  0.4885801575462302  0.1299212198089240
  0.3663702043451289  0.8946114108343957  0.0756931060016474
  0.3079256381102655  0.5370930435272052  0.1483807993916883
  0.7399310993704772  0.4039920439955488  0.1162170625526834
  0.1559384679696571  0.6977222188351352  0.1170889042212969
  0.5643900377556272  0.6188424527789754  0.3357854730463969
  0.6145658862528084  0.2957807225076046  0.3029562971842700
  0.4540374473719824  0.2501789994035558  0.2187281360980670
  0.2620698969939466  0.1787657689030410  0.2813140032053824
  0.6872165273249475  0.5935707333232003  0.3315971117210377
  0.5318546247393336  0.3299544051853369  0.2521796512832425
  0.3974690680985885  0.3626520622961319  0.3261236469112960
  0.2982608370540339  0.2105793781205772  0.1404513813072165
  0.6003908533063326  0.3893820097309965  0.1770862496853768
  0.5373954736630884  0.5109560987648587  0.0693521787205707
  0.2379272682413971  0.3903002520433440  0.2186618071309158
  0.6408715251822883  0.3854147746832807  0.2494279462181142
  0.0394738384092895  0.9623284472134488  0.1116490279237023
  0.8534269451617486  0.5855998963490213  0.1708224982022462
  0.6916022388192281  0.5709809054636549  0.0729243039222896
  0.6297271946017409  0.4979035254816445  0.2130035814344495
  0.0712377578612519  0.1750540282135522  0.1151080363241943
  0.9123998500309716  0.2668629238058283  0.3743756451719705
  0.8358609541512029  0.1153375286241527  0.1013113640884164
  0.4999572258800514  0.0800956826162608  0.1226110597492875
  0.6299478411868114  0.9524615865197379  0.2629170527186595
  0.2294850034062642  0.6011007272201875  0.1069733587882760
  0.0669410211836352  0.2278041478362184  0.1860178580886934
  0.7625983562219236  0.9418545043083003  0.1510888697438919
  0.8221691656923278  0.1930797426707743  0.1617743022525840
  0.2204853694622586  0.2563329721963929  0.3326865606371592
  0.0253989947259297  0.1111121545805940  0.3537679439981341
  0.7249690664071600  0.0623098534141603  0.0937809191072955
  0.3063216516052957  0.4126914990210354  0.0786024279693080
  0.7728934233569499  0.7876037104392382  0.3223650172223260
  0.0726352181223803  0.6055487429965244  0.1280193028455449
  0.8571396755228176  0.2151214862732073  0.3146871024398178
  0.1263525854842286  0.3455001991228877  0.2147642512497843
  0.0407583143031481  0.3274636694725334  0.2698390515193972
  0.6572626043061282  0.1639909596970067  0.2729174797276047
  0.2291291935709310  0.5076489714361455  0.2454567990458476
  0.7405523172120748  0.6576753134707999  0.2734092617584152
  0.7420738064842597  0.2504183501315335  0.1165570461925341
  0.0071400952942229  0.4974956934636964  0.3074929621900002
  0.1992913365861166  0.5916091615902245  0.3368576773066341
  0.3262406238001994  0.7870928789170578  0.2871549031197509
  0.0952288237267616  0.2624384852576260  0.3269737797848610
  0.4073509860552770  0.5555942875009290  0.2636712661384622
  0.7375343073150309  0.0172048948212877  0.3547505250186311
  0.4166797130913503  0.5381216944923962  0.1852341617960748
  0.0500336370953084  0.6961349587065629  0.0756940151222883
  0.9965957394092014  0.5407321888531498  0.2345919021395746
  0.5192169942556448  0.4613442698865646  0.1403665713862973
  0.9904723007160897  0.7858620443346006  0.2083825921032116
  0.1705374993774906  0.9531885564051722  0.3129292833767233
  0.5586144263429593  0.8449295562354164  0.1507833805805976
  0.2199848406359971  0.0579216572662903  0.2790289521227398
  0.3414729553901194  0.7288427806521275  0.3565377200920560
  0.2707224539357724  0.5239464882800930  0.3849734853990210
  0.4714338020072534  0.3796568155415516  0.3877207427618263
  0.1498862480899150  0.2726519025406193  0.3967009590688065
  0.6021860162227596  0.2604565785886345  0.3777752041068906
  0.7270707190005636  0.1036697983462754  0.4109661672891750
  0.8999579749443982  0.1333438372708229  0.3673202979992513
  0.8193091158499027  0.7612677116906493  0.3934478443922401
  0.8794162612320128  0.5390687643258794  0.3624727889598132
  0.8641469300455952  0.4083399463228393  0.3702853810751963
  0.7724029713621514  0.3911957663297302  0.3145241108615208
  0.0067255426639693  0.5369396197120533  0.3796080853160679
  0.9931778462496158  0.4122471833622972  0.3658007611535321
  0.5435854955796746  0.8629014068660704  0.3533870437096119
  0.0941722848271038  0.7583388233191766  0.3588306648088368
  0.1548720309404160  0.8769749789775441  0.3708846782328383
  0.0338107717589660  0.9823687124302644  0.3514129673482304
  0.4289747361767103  0.8227534032206993  0.3711248053852865
  0.5212127451357369  0.9906685113526341  0.3450115826117644
  0.6589825156955341  0.4451722623018675  0.0611060388832948
  0.7761804520760546  0.4207816632609608  0.0416628438768238
  0.6869848278362759  0.2039045139325179  0.0521435379939527
  0.1275961448688702  0.2885894478066854  0.0495967657306308
  0.1795248153820937  0.4940401296601508  0.0507806557294241
  0.4345578855256919  0.8518744395312263  0.0184875125576272
  0.2045179993313287  0.6775281096420686  0.0457280907098120
  0.2648984216517729  0.9501507426741617  0.0495453791625222
  0.8999751218614060  0.5831979091801130  0.0390280832932237
  0.9079187287301899  0.4611995747210072  0.0576689678977392
  0.8219154175637566  0.0090936652444179  0.0576952278381982
  0.7816979996633395  0.1225994597418119  0.0339277635778219
  0.1699228060286564  0.1616856532630356  0.0688719431511542
  0.0266863888075247  0.0289652104827554  0.0461106625188867
  0.1310272288536773  0.9654097578156122  0.0559852424640738
  0.9542187782533534  0.2807459801883542  0.0562752821233160
  0.9454124407813003  0.3686163461152591  0.1138920911809895
  0.6126973943989122  0.1027292891480043  0.0693435930715180
  0.3539664253797431  0.3843584958643244  0.1123181307007962
  0.2175228550881119  0.6722591032554252  0.0927225614774329
  0.3179263491904973  0.7205354994935191  0.3104327206511668
  0.3563806862677563  0.7284295910776071  0.1043236163720004
  0.2943641809418432  0.8561274211859285  0.2969418340114469
  0.4450267065945874  0.5730263378209614  0.2236324075650877
  0.3965503596295917  0.1028197275923528  0.2888115927202433
  0.6271671782834650  0.1878277083404062  0.2313455024133881
  0.9167118709878500  0.0398106232810008  0.2748242589312478
  0.0764430016718839  0.7707320427658457  0.3121445969365239
  0.8141245943464059  0.7383761705345203  0.3481450751736084
  0.8147441940827794  0.5320824586251327  0.1461567328864508
  0.4131854319238574  0.8371939980913049  0.0633366928265581
  0.5317357908475542  0.3908023420245449  0.1567306738852918
  0.4699118355098981  0.3609671350201383  0.3407061398280316
  0.6543174843078747  0.6775055604556651  0.1775705839934880
  0.4658664390157444  0.7145654800360709  0.2061608327222147
  0.7718260217145774  0.3991823714826809  0.1591715128288808
  0.8549659355222642  0.7779969526009409  0.1320570412639043
  0.8562502824690291  0.9225565820490034  0.2488788659874408
  0.8680529444249747  0.5356615128184489  0.3147300001415969
  0.6179170655309324  0.1325918750491339  0.3087523502149334
  0.7743113991746599  0.9972844148747039  0.1837411242922463
  0.5937851370317916  0.5625855602212575  0.2263880074316536
  0.6182944451580189  0.5692527093124313  0.3184449583745458
  0.9611183826739157  0.0776342160652991  0.1931683064963208
  0.3290553731120708  0.1472930846337833  0.1230737062475050
  0.2902905434078521  0.9156633434932293  0.2140895659238374
  0.7448103992889575  0.8808172496559676  0.1242102947919520
  0.7666033848642979  0.6957679988398893  0.2358690938119861
  0.9480670021603190  0.8451194489558098  0.1929249917407144
  0.7267390080487311  0.0914283920361503  0.3636433611431923
  0.1611006006937828  0.8795308047040925  0.3231412202848870
  0.0762207389645049  0.0052571718077463  0.0794034124203379
  0.4674792256465373  0.3240940268187827  0.2262821223474233
  0.0450659906371610  0.2599479621598115  0.2915066216778246
  0.4772698470843912  0.1775479747794398  0.2247965816242613
  0.1992891870300957  0.3254999263303893  0.2175241210117038
  0.0914081168942841  0.6555135276436603  0.2616781049414273
  0.1340831997504739  0.1335719771921399  0.1073262108455477
  0.0418759512231423  0.4958828562712166  0.2083258762593614
  0.3840969793196035  0.8190942924894827  0.1765661255333565
  0.4736200180693598  0.9806879181818209  0.3072735152320138
  0.6346610405859686  0.8775280480349140  0.2536260069267258
  0.2640340021536123  0.2785123966274577  0.1408674809747205
  0.6494717935449453  0.0541652417554923  0.0973323497389218
  0.5818026864496073  0.0113031868433111  0.2590360987966563
  0.1529038938562695  0.4662438438961899  0.0921367700965615
  0.5423085571208837  0.5245232534587706  0.1161719050838301
  0.4639519964735475  0.0130037443919148  0.1175913908025452
  0.8082866860449693  0.2609940778759344  0.1389017768171952
  0.6877738838285732  0.2610557280164630  0.0839787482965310
  0.5697712225670650  0.2579459981430085  0.3346226398976602
  0.4743005878973153  0.8462276040851031  0.3362197701734065
  0.0651566706316435  0.1730048005699618  0.2188458511205829
  0.1577732370723473  0.0150351148444770  0.2862683228096680
  0.8447917855055163  0.1213973038113804  0.1486889515582280
  0.9925013240182694  0.5587506022207932  0.2806741091604820
  0.2955251695858407  0.9187289648915696  0.0885703684713509
  0.8529220713434108  0.1420457162756437  0.3290902978729939
  0.2492726331338444  0.5346255250360693  0.3394672158235303
  0.0328200095684793  0.9556036868743373  0.1590834757723274
  0.1586980392488105  0.9673383629849259  0.2021555018155685
  0.2643043519581904  0.1114759970285155  0.2592117757124058
  0.0371014527084039  0.5387109370401723  0.1217000911749980
  0.7912158325170999  0.0751426101451886  0.0719475048587509
  0.3572548647185190  0.3553672229799639  0.2854405735840892
  0.0812032762412247  0.6801878224669349  0.1187480258071641
  0.1841170951169934  0.1048833615501993  0.1881708737873670
  0.2754072980658589  0.4463491175348607  0.2400276571764142
  0.1485561056951043  0.3157159288713775  0.0924533654318599
  0.5401916778170118  0.7743017202117102  0.2758817434132783
  0.2522292999080714  0.2521911042518643  0.2896911540001832
  0.7189819049889528  0.3994780232665158  0.0702416171150092
  0.8694088043509954  0.6588035022651392  0.1817993820340588
  0.4958895938567697  0.8762949243182523  0.1329861598412454
  0.3748823433977490  0.5886470608834067  0.3022277429375706
  0.6480732048432951  0.4240222020639781  0.2077232772139395
  0.8470507263817182  0.3982980776540776  0.3229929786077907
  0.7616261582911892  0.8208593182373112  0.2802113510292094
  0.6273202054065925  0.8250233840523976  0.1676014982833451
  0.6074940777661926  0.3179880330302910  0.2573095661915389
  0.4713971199894793  0.1471011161676389  0.1381396774692053
  0.5455111851925849  0.2654966559264964  0.1053370406726346
  0.4781274341153707  0.6601957233994844  0.1217757830732421
  0.0271137734001462  0.4764669828250525  0.3515804969783530
  0.9089613129143321  0.2682148193134359  0.3259787605364582
  0.0375709881895784  0.0488012707307919  0.3274426120587338
  0.3366844733244970  0.0123775260423922  0.1565420050011803
  0.3590038123805029  0.4944590401068432  0.1711028559553018
  0.1566863846003504  0.2878405898008689  0.3501638313846828
  0.1520270979125648  0.4290558483812215  0.3243211033535880
  0.6788290411862941  0.5770812741716469  0.1204400293075205
  0.2342349566290066  0.5512273692643772  0.1423778714460169
  0.1770134296905726  0.5532327171436037  0.2241459044439442
  0.0070280427059086  0.7149085040539803  0.1931397668681770
  0.7522218792724215  0.6210603806896459  0.3142899085540171
  0.9370385084384480  0.2949660498131409  0.1022961957709294
  0.6485469189127406  0.0686995941342907  0.1889896854045512
  0.0823117216387946  0.3793948888994978  0.2474956344042361
  0.9073118678274021  0.5338240037364458  0.0752641258414027
  0.0537790875295702  0.2388346440626919  0.1397442969925477
  0.7326551902812176  0.5828355874349883  0.0632635608993088
  0.5672683802260354  0.4797822131885115  0.0598200396176491
  0.3266146191944699  0.4142701426676926  0.0531938448550662
  0.4534379049296833  0.3525932430072496  0.1003257970086812
  0.4657024820949304  0.5985236669961239  0.3363216328246816
  0.5735148037379463  0.6336374218824337  0.3624063270459532
  0.5723377594404659  0.4735679703300348  0.3306201891420862
  0.2114851222090673  0.7260565868587692  0.2984998468028246
  0.3086982934012388  0.7363629230350318  0.3756287076889412
  0.2143006525744511  0.6320313034616859  0.3262799407750466
  0.2673871274439539  0.4819766825095964  0.3960581758665472
  0.5234749155174859  0.4036313084042782  0.2924030525942463
  0.4455880034993063  0.3516591112098665  0.4042388819281521
  0.1351704569674779  0.2312617142066273  0.4036743771411485
  0.5792379049411321  0.6928733877351700  0.3103838050701232
  0.5973479886097660  0.2973998464125129  0.3942136485773209
  0.3726730376868461  0.1869227907365650  0.3253970927448557
  0.7019400013070668  0.1382657366790167  0.4203998977466035
  0.9024430602666210  0.1712274760944668  0.3834163090543489
  0.8999742514115744  0.6946288592327060  0.3210517244703811
  0.7811817581166566  0.7619687723527139  0.4088365267759076
  0.9225177049386445  0.5459222971702646  0.3719014128317652
  0.7514961028925863  0.3514890907655044  0.3183959355672837
  0.8578020863893770  0.4519342777055605  0.3785901603666398
  0.0233677886096850  0.5381792288655292  0.4060183395514536
  0.9471430113658732  0.4119608179657622  0.3692234124947296
  0.9675487352151936  0.7714865205559521  0.3163002010063107
  0.0961752314917371  0.7151051561020312  0.3673908658266066
  0.1364811557761895  0.8377245328684305  0.3800043625035417
  0.9812911507762961  0.1184431421783789  0.3609201410819959
  0.0662935406780490  0.9722909056686893  0.3702196900235890
  0.5501273895969832  0.9078638059858819  0.3571651925851785
  0.3979807005867982  0.7896875657652881  0.3659881649266755
  0.3615262096223337  0.9044256040089383  0.3371124803841956
  0.7214929119461658  0.9868021195429615  0.3731959039713713
  0.5508391694963187  0.0248779570510580  0.3418317273104349
  0.9397396611756227  0.2967972839646977  0.3871754155456363
  0.8188799021961251  0.4256280878645733  0.0511245256000854
  0.6709060289236887  0.4896738737259058  0.0595751405867183
  0.7258312592154288  0.1831313067562506  0.0433799301304676
  0.3120624812939252  0.1009499492881308  0.0645683396748226
  0.1397634056240740  0.2445297655867707  0.0466221566018332
  0.2229003478806350  0.4837427174058639  0.0454355933389120
  0.2531516453687361  0.8212607156776532  0.0982451825187043
  0.4769357389348394  0.2766552000401198  0.0557252722983618
  0.4552691395554221  0.8193442486035781  0.0036280592736524
  0.1618916855916125  0.6712366149235820  0.0368379536908447
  0.4130479636058426  0.9756399101162728  0.0650067809748603
  0.0139565372983300  0.7237594086107115  0.0766343022459095
  0.8799362845865651  0.7964470806946864  0.0694505687094623
  0.7021560894679703  0.9296000231942877  0.0745166905883111
  0.5238623152642060  0.7353767331539361  0.0866878991084208
  0.2200644577608750  0.9600478064182444  0.0515059296732662
  0.9280194378541233  0.6188229034132315  0.0391075193963293
  0.9333314613190903  0.4536373919895006  0.0345670020609905
  0.5947221529641848  0.9640070838977896  0.0946986056370156
  0.7980152035634973  0.9709961550313803  0.0643175652012473
  0.7791963475693291  0.1029449463431430  0.0083925849904354
  0.2157997636489840  0.1553713805313393  0.0690232657581802
  0.9840263966245572  0.0378074616249111  0.0540335486520864
  0.9980148214297776  0.2836813185306811  0.0488140117054564
  0.9318127183319286  0.3995572196770663  0.0945466803250915
  0.1156848607832967  0.9358897981029340  0.0366710193713039
  0.6350658716476953  0.1413695464023131  0.0616450146607240
  0.6218528447390586  0.4747805683887584  0.4480399341131502
  0.4901960691007863  0.4389151730421721  0.4507472080909976
  0.5389760771883065  0.5462311606688215  0.4869983454178626
  0.6587779511909395  0.6237819442398770  0.4499688607661312
  0.3807930943726147  0.5439136823462823  0.4831978785927095
  0.3517044686294885  0.4178730044896012  0.4601410486413656
  0.6280565513645165  0.5002450914046925  0.5125494414297814
  0.5831822842195203  0.3754146782776335  0.4501786455174897
  0.5392764974161072  0.5270297708729439  0.4194612046358970
  0.7005104355464085  0.5304736363811821  0.4206684249491013
  0.3998308370657681  0.4934869495504383  0.4227190347496309
  0.4809897085556590  0.4616511187006232  0.5139496581841873
  0.4499926164957277  0.5996669080761052  0.5198771078098050
  0.5723154147335081  0.6501143510590207  0.4872447076225675
  0.7352314552678307  0.6534131838658767  0.4848682093188086
  0.6515284454863756  0.6873607534947063  0.4020173548854236
  0.3233440704625041  0.4687434364401508  0.5163871893633531
  0.3125607756997499  0.6085832130440021  0.4642749562685898
  0.2721143011945758  0.3851406719340923  0.4283551079096253
  0.4259039363993415  0.3438303619877221  0.4673019945140239
 
  0.00000000E+00  0.00000000E+00  0.00000000E+00
  0.00000000E+00  0.00000000E+00  0.00000000E+00
  0.00000000E+00  0.00000000E+00  0.00000000E+00
  0.00000000E+00  0.00000000E+00  0.00000000E+00
  0.00000000E+00  0.00000000E+00  0.00000000E+00
  0.00000000E+00  0.00000000E+00  0.00000000E+00
  0.00000000E+00  0.00000000E+00  0.00000000E+00
  0.00000000E+00  0.00000000E+00  0.00000000E+00
  0.00000000E+00  0.00000000E+00  0.00000000E+00
  0.00000000E+00  0.00000000E+00  0.00000000E+00
  0.00000000E+00  0.00000000E+00  0.00000000E+00
  0.00000000E+00  0.00000000E+00  0.00000000E+00
  0.00000000E+00  0.00000000E+00  0.00000000E+00
  0.00000000E+00  0.00000000E+00  0.00000000E+00
  0.00000000E+00  0.00000000E+00  0.00000000E+00
  0.00000000E+00  0.00000000E+00  0.00000000E+00
  0.00000000E+00  0.00000000E+00  0.00000000E+00
  0.00000000E+00  0.00000000E+00  0.00000000E+00
  0.00000000E+00  0.00000000E+00  0.00000000E+00
  0.00000000E+00  0.00000000E+00  0.00000000E+00
  0.00000000E+00  0.00000000E+00  0.00000000E+00
  0.00000000E+00  0.00000000E+00  0.00000000E+00
  0.00000000E+00  0.00000000E+00  0.00000000E+00
  0.00000000E+00  0.00000000E+00  0.00000000E+00
  0.00000000E+00  0.00000000E+00  0.00000000E+00
  0.00000000E+00  0.00000000E+00  0.00000000E+00
  0.00000000E+00  0.00000000E+00  0.00000000E+00
  0.00000000E+00  0.00000000E+00  0.00000000E+00
  0.00000000E+00  0.00000000E+00  0.00000000E+00
  0.00000000E+00  0.00000000E+00  0.00000000E+00
  0.00000000E+00  0.00000000E+00  0.00000000E+00
  0.00000000E+00  0.00000000E+00  0.00000000E+00
  0.00000000E+00  0.00000000E+00  0.00000000E+00
  0.00000000E+00  0.00000000E+00  0.00000000E+00
  0.00000000E+00  0.00000000E+00  0.00000000E+00
  0.00000000E+00  0.00000000E+00  0.00000000E+00
  0.00000000E+00  0.00000000E+00  0.00000000E+00
  0.00000000E+00  0.00000000E+00  0.00000000E+00
  0.00000000E+00  0.00000000E+00  0.00000000E+00
  0.00000000E+00  0.00000000E+00  0.00000000E+00
  0.00000000E+00  0.00000000E+00  0.00000000E+00
  0.00000000E+00  0.00000000E+00  0.00000000E+00
  0.00000000E+00  0.00000000E+00  0.00000000E+00
  0.00000000E+00  0.00000000E+00  0.00000000E+00
  0.00000000E+00  0.00000000E+00  0.00000000E+00
  0.00000000E+00  0.00000000E+00  0.00000000E+00
  0.00000000E+00  0.00000000E+00  0.00000000E+00
  0.00000000E+00  0.00000000E+00  0.00000000E+00
  0.00000000E+00  0.00000000E+00  0.00000000E+00
  0.00000000E+00  0.00000000E+00  0.00000000E+00
  0.00000000E+00  0.00000000E+00  0.00000000E+00
  0.00000000E+00  0.00000000E+00  0.00000000E+00
  0.00000000E+00  0.00000000E+00  0.00000000E+00
  0.00000000E+00  0.00000000E+00  0.00000000E+00
  0.00000000E+00  0.00000000E+00  0.00000000E+00
  0.00000000E+00  0.00000000E+00  0.00000000E+00
  0.00000000E+00  0.00000000E+00  0.00000000E+00
  0.00000000E+00  0.00000000E+00  0.00000000E+00
  0.00000000E+00  0.00000000E+00  0.00000000E+00
  0.00000000E+00  0.00000000E+00  0.00000000E+00
  0.00000000E+00  0.00000000E+00  0.00000000E+00
  0.00000000E+00  0.00000000E+00  0.00000000E+00
  0.00000000E+00  0.00000000E+00  0.00000000E+00
  0.00000000E+00  0.00000000E+00  0.00000000E+00
  0.00000000E+00  0.00000000E+00  0.00000000E+00
  0.00000000E+00  0.00000000E+00  0.00000000E+00
  0.00000000E+00  0.00000000E+00  0.00000000E+00
  0.00000000E+00  0.00000000E+00  0.00000000E+00
  0.00000000E+00  0.00000000E+00  0.00000000E+00
  0.00000000E+00  0.00000000E+00  0.00000000E+00
  0.00000000E+00  0.00000000E+00  0.00000000E+00
  0.00000000E+00  0.00000000E+00  0.00000000E+00
  0.00000000E+00  0.00000000E+00  0.00000000E+00
  0.00000000E+00  0.00000000E+00  0.00000000E+00
  0.00000000E+00  0.00000000E+00  0.00000000E+00
  0.00000000E+00  0.00000000E+00  0.00000000E+00
  0.00000000E+00  0.00000000E+00  0.00000000E+00
  0.00000000E+00  0.00000000E+00  0.00000000E+00
  0.00000000E+00  0.00000000E+00  0.00000000E+00
  0.00000000E+00  0.00000000E+00  0.00000000E+00