 O Si  H Mo  S                          
   1.00000000000000     
    21.3948993682999991    0.0000000000000000    0.0000000000000000
     0.0000000000000000   21.3948993682999991    0.0000000000000000
     0.0000000000000000    0.0000000000000000   34.1699981689000012
   O    Si   H    Mo   S 
   236   102    68     4    10
Selective
Direct
0.2822625031384328 0.7105386460927352 0.1013942820113234  F  F  F
0.6109372634074198 0.6249958895564278 0.2026978029641110  F  F  F
0.1507727893543968 0.3910364546524463 0.0913954890104621  F  F  F
0.3794042506851544 0.4411491735300923 0.1410569088337298  F  F  F
0.6762702075027144 0.8487254966497245 0.1352160449441979  F  F  F
0.1000098909745419 0.4626497680272131 0.3541636556545841  F  F  F
0.0021549071705380 0.7626389234166396 0.2980622577363574  F  F  F
0.6581493078776466 0.1436599535607126 0.1968730166548003  F  F  F
0.2142382011566997 0.9161717180347794 0.2053919584347594  F  F  F
0.8452400711972669 0.5324375223404874 0.1031522466355208  F  F  F
0.4125856549175086 0.7692331168655877 0.2094185252201674  F  F  F
0.5174483707147385 0.5522360072498208 0.2267588139855017  F  F  F
0.1139807362110731 0.5124179119609195 0.2151014382419572  F  F  F
0.6112192883348236 0.4963008811881365 0.3365457457882571  F  F  F
0.4347194003011483 0.6478654114699938 0.2215425587823923  F  F  F
0.1202571200966858 0.4168281400490739 0.2810195008177264  F  F  F
0.5203230372979051 0.7344590117035218 0.2374838429436495  F  F  F
0.3177133018820337 0.9829835727530333 0.1994261969857163  F  F  F
0.3233307870674260 0.8568507157960755 0.1926802776084908  F  F  F
0.8152192273621962 0.8746385921883015 0.2734813823523292  F  F  F
0.9741625925246440 0.2463984201591221 0.3086433575645670  F  F  F
0.9873913972563622 0.0427250701900528 0.2917553249083418  F  F  F
0.0030230315556482 0.0206340112781550 0.1753414806496724  F  F  F
0.0975049000410218 0.2975012218560684 0.1266041304867452  F  F  F
0.5907026255626839 0.7300357920480840 0.3014085430985249  F  F  F
0.4218339228923628 0.5800737765837595 0.3404825626881491  F  F  F
0.7999950887948650 0.3270749248170626 0.1659832147565327  F  F  F
0.0640523219229130 0.2037616315669366 0.2624860268633872  F  F  F
0.5209194370867863 0.6906037415753061 0.0885222047057038  F  F  F
0.1519078222462265 0.6130428076070205 0.2515585436699377  F  F  F
0.5517832404855023 0.1771573244865350 0.2318932024914553  F  F  F
0.7171497982126849 0.4131682233602334 0.1929403590121104  F  F  F
0.5109387229155479 0.9502442234222936 0.1248991692030904  F  F  F
0.2537019585182725 0.8637529534447799 0.1084339911656338  F  F  F
0.6275214212508508 0.7479706154071994 0.1747515721288604  F  F  F
0.7413515326121791 0.9059818697136743 0.0789827231276048  F  F  F
0.6948518886852408 0.8511568006351826 0.2800115681883994  F  F  F
0.7208483040417257 0.6806049027554530 0.2013851921569396  F  F  F
0.2220909585033791 0.2836010947512125 0.1817911405957187  F  F  F
0.1122599811900389 0.0618340870532036 0.1023231249860299  F  F  F
0.5634939405401324 0.1811334480154501 0.3215053281291315  F  F  F
0.7795238132075567 0.6710949226494107 0.3490247055522279  F  F  F
0.2047567332271787 0.2838009567854917 0.2579885397433868  F  F  F
0.6148949153054665 0.5356815007000918 0.1303867233827110  F  F  F
0.3308507414704718 0.4640516980014091 0.2110968681416950  F  F  F
0.3150415983622779 0.3356263010076035 0.1409096625079730  F  F  F
0.3026556846151726 0.9723316907411246 0.1225245025334589  F  F  F
0.4988080436610946 0.5862218016009016 0.1269953376115757  F  F  F
0.8686321146081490 0.4637361063445637 0.3028134156266342  F  F  F
0.5925585025219750 0.0631741185233476 0.2935133223495351  F  F  F
0.4596667891552541 0.1397760018970309 0.1851567985169139  F  F  F
0.4794060746100646 0.7922421149867480 0.3031909324641265  F  F  F
0.5126108334031801 0.4108673141685718 0.3191298973148473  F  F  F
0.0995669563428222 0.8425171262073307 0.3038029844982590  F  F  F
0.3091533632322490 0.4152184180385941 0.2791112593568152  F  F  F
0.7807374542022846 0.1294121737217791 0.3402817332478983  F  F  F
0.4911122127035575 0.7003955934707244 0.1633909598990595  F  F  F
0.9885494371312704 0.8955018393345261 0.1676054654430955  F  F  F
0.8867541162989685 0.7280172971588360 0.3293301194877440  F  F  F
0.6120521914093002 0.5753678595216153 0.2735229518293170  F  F  F
0.7922684608769769 0.8217048625105726 0.1261105130014694  F  F  F
0.8860707425511567 0.3375440208846998 0.3107521675345192  F  F  F
0.8203583881470835 0.4586620538180038 0.1641479693370394  F  F  F
0.6366422180706957 0.2635603545803001 0.2274513539108482  F  F  F
0.8963334843203791 0.8159230346968435 0.1626256432293937  F  F  F
0.8743799764403793 0.0942566076998679 0.2953427080858165  F  F  F
0.4438389653498428 0.9122497716252992 0.3164329631573704  F  F  F
0.1070077580537263 0.0595084431384736 0.3075418998643972  F  F  F
0.0313102275378783 0.4249560623501318 0.2239564853373809  F  F  F
0.5734463698721982 0.8380053264199825 0.2650715663132703  F  F  F
0.0033672521461125 0.1313190182855787 0.2124380400604498  F  F  F
0.2169518928119024 0.2866565368948729 0.1044626093024745  F  F  F
0.4376970851565409 0.8689852604696858 0.1652729882299130  F  F  F
0.4120919586860978 0.0068929391068311 0.1527591321721784  F  F  F
0.1246086685965012 0.1273420069297744 0.2146331170127186  F  F  F
0.1004969718314049 0.9391166334397894 0.1773779404247215  F  F  F
0.3015369333252297 0.9041050526328716 0.2606947475008936  F  F  F
0.3610238401178625 0.7769788096176425 0.1411652230763415  F  F  F
0.5905721978896843 0.0428442499572267 0.2163049540482382  F  F  F
0.3174963043733573 0.0863859732708019 0.1511766200795146  F  F  F
0.4080402453007474 0.3522432582531163 0.2510521613842830  F  F  F
0.5157320609399950 0.2082471923362467 0.1313977643391832  F  F  F
0.6959831637555653 0.3280016137946260 0.0622270479281078  F  F  F
0.8389382169973660 0.7072520803834785 0.1510776874031132  F  F  F
0.8362380018936715 0.6698744285051884 0.2262364533329482  F  F  F
0.6204902210461347 0.2581699474703706 0.1066153855404730  F  F  F
0.3796834929757908 0.7682411935861980 0.0671543810527369  F  F  F
0.4208989846287061 0.0354725050729219 0.3042604738915336  F  F  F
0.3101698366285556 0.5484525083212936 0.3148081419179254  F  F  F
0.2452309340289646 0.1244648107740052 0.2136164484868953  F  F  F
0.7400453866393127 0.5482746441697823 0.1441260656281134  F  F  F
0.6309758488988354 0.0598862860886760 0.1432819106791151  F  F  F
0.8142188550744341 0.9626949411913165 0.2180102641386101  F  F  F
0.1693543781578668 0.3633115864317707 0.3444796958004573  F  F  F
0.2416221677820249 0.6959723595013683 0.3125044924964661  F  F  F
0.0433308953541071 0.7208559335472059 0.1516000677903816  F  F  F
0.6666511117191306 0.6478945262468417 0.1354648044426248  F  F  F
0.7080247549654336 0.0240416094545601 0.2006008321971323  F  F  F
0.6479295535890475 0.8623957100533911 0.2074753177503487  F  F  F
0.4092199612144094 0.3528107624009318 0.0886621285086430  F  F  F
0.5203819765850189 0.2640989175279126 0.0606473663680950  F  F  F
0.9123280942045180 0.8833357949385282 0.2269921296162893  F  F  F
0.5278622971906312 0.3362466189529519 0.1235554090880056  F  F  F
0.4038694738990467 0.1582200585540365 0.1168845019146841  F  F  F
0.7702120597207558 0.7688348476854087 0.2459847482685783  F  F  F
0.6337621380032850 0.9805788448199692 0.0838412058922167  F  F  F
0.2103102980274594 0.4742318218506562 0.3213955787560379  F  F  F
0.0536497670464537 0.6795857749923345 0.2230448189877762  F  F  F
0.8870378896479587 0.9711493040095206 0.2809028195030772  F  F  F
0.1842223446859742 0.0304928234172323 0.1801572805878104  F  F  F
0.3362029162038690 0.0881603933433232 0.2610743176212958  F  F  F
0.0410678170661283 0.6166690159121060 0.2895068273122648  F  F  F
0.9181999500650939 0.1103051223330513 0.1590513556721359  F  F  F
0.4460296510105015 0.1430024448042765 0.2620589890819485  F  F  F
0.1813489581185538 0.1387908244694764 0.1453076674073528  F  F  F
0.1318156131229431 0.9881390867596677 0.2447200133333973  F  F  F
0.3204790909688214 0.8837537779563875 0.3363757986370712  F  F  F
0.2954327194742493 0.1367010779685622 0.0801689813952016  F  F  F
0.8640367009498995 0.2724232829965413 0.1087701719027007  F  F  F
0.8874683890014650 0.7637175140162135 0.0906105971848496  F  F  F
0.1144050016111253 0.7181247112187963 0.2866074064415917  F  F  F
0.4754439820249596 0.8387314842120226 0.0943119839385772  F  F  F
0.4354716784996681 0.0126381490652925 0.0743895099113465  F  F  F
0.2190202702529559 0.8399610572047899 0.3049952927401932  F  F  F
0.8082750128635789 0.0605513646938448 0.1675372560743746  F  F  F
0.9434022560454097 0.6707894374925024 0.1871075786076985  F  F  F
0.3181022534819830 0.2896261345530857 0.2891656894385922  F  F  F
0.9164030916251035 0.0514300290723177 0.2276458604723810  F  F  F
0.7976103712318575 0.5643847550299717 0.3095132112906642  F  F  F
0.3569022400210389 0.6607918658727020 0.2944154253282696  F  F  F
0.4949093301512991 0.2863167701126912 0.3304196235865987  F  F  F
0.6604916251756924 0.1183124877276904 0.3465960081183195  F  F  F
0.9190294015101297 0.5795105728020091 0.2933211375177251  F  F  F
0.9709475136381239 0.5499557277943053 0.0990546582440174  F  F  F
0.5117288133821373 0.9833415144967008 0.2656407715359511  F  F  F
0.4022688251582537 0.6673527233032513 0.1127398124241060  F  F  F
0.3805362939190163 0.1425081367568921 0.3283857666683362  F  F  F
0.4748542555937877 0.3687539439482878 0.1880026604867514  F  F  F
0.0204628762737409 0.5078615972641634 0.1641618562258930  F  F  F
0.0811191324001445 0.4926450907879907 0.0965940800863269  F  F  F
0.2039019275492093 0.5809970339418093 0.1836983373708925  F  F  F
0.9804540044122452 0.2554141559668944 0.1331060043633494  F  F  F
0.1943544822138439 0.4882404646329324 0.1310708665606248  F  F  F
0.3673116846932938 0.8947149666522823 0.0770412587175885  F  F  F
0.3062314891852020 0.5380258561996814 0.1499858163710683  F  F  F
0.7403551348813595 0.4030700953651670 0.1168163228311166  F  F  F
0.1554726262378737 0.6984462087275027 0.1174134788510118  F  F  F
0.5598774761422931 0.6130171280541943 0.3379157912434333  F  F  F
0.6124892247588205 0.2926797531943042 0.3022984735191336  F  F  F
0.4531627833792531 0.2500087121721650 0.2184880126060587  F  F  F
0.2620219524251333 0.1787319783438742 0.2812905879209125  F  F  F
0.6843302088888630 0.5954204729452328 0.3345752674362821  F  F  F
0.5315081848378956 0.3295796855440709 0.2509003656023561  F  F  F
0.3956245757894633 0.3641407472967177 0.3270999350210346  F  F  F
0.2989790399013823 0.2117820449068299 0.1409111817755540  F  F  F
0.5980517109115056 0.3908563192476112 0.1785230691600902  F  F  F
0.5362894455578251 0.5111309840587525 0.0701522981900117  F  F  F
0.2370728554011908 0.3898292064716918 0.2197420572495549  F  F  F
0.6403716847599116 0.3846011216644373 0.2502607983572298  F  F  F
0.0399619311347990 0.9621587802659016 0.1112978809671276  F  F  F
0.8524998369600385 0.5847206464592239 0.1717567756377020  F  F  F
0.6896341242813366 0.5709974119497169 0.0738226910898594  F  F  F
0.6290998231764329 0.4981979604725125 0.2149371561619672  F  F  F
0.0712271232373039 0.1760594586187771 0.1160501455710062  F  F  F
0.9115081237851040 0.2670381993465197 0.3750749217897660  F  F  F
0.8354344612726662 0.1157339938682562 0.1013349552372779  F  F  F
0.5003295343210047 0.0798601247644771 0.1232569903002494  F  F  F
0.6295396411360815 0.9503641958304482 0.2629322652308854  F  F  F
0.2278199191700648 0.6007146306102086 0.1073675745364187  F  F  F
0.0664519126112103 0.2290644165663582 0.1869032134324417  F  F  F
0.7622702283756873 0.9411423669880624 0.1514870553388179  F  F  F
0.8215927965806492 0.1927812586159740 0.1621798762786847  F  F  F
0.2189738433682998 0.2547370426275614 0.3329628616548653  F  F  F
0.0256149817418864 0.1115802408221360 0.3538751273898668  F  F  F
0.7249047290429443 0.0618451087512761 0.0936018098786698  F  F  F
0.3039606000097663 0.4139354364068334 0.0797102625320847  F  F  F
0.7757979251806838 0.7886065435199533 0.3233161850250620  F  F  F
0.0729540206473747 0.6055988300252279 0.1279078084726187  F  F  F
0.8564694826754007 0.2157969254107919 0.3149478021978675  F  F  F
0.1249855448723332 0.3461714145122112 0.2155899310119157  F  F  F
0.0369136657847905 0.3264490597940598 0.2685829165615154  F  F  F
0.6574052193588582 0.1630810718450278 0.2722469991503759  F  F  F
0.2290515980028277 0.5082489792807848 0.2448342907733953  F  F  F
0.7390745227820784 0.6578362601551995 0.2759984741493359  F  F  F
0.7418690665039044 0.2504012912805247 0.1167948452778875  F  F  F
0.0073457875381549 0.5001868996734505 0.3098019038655846  F  F  F
0.2070366901247586 0.5916393138838478 0.3508674212761713  F  F  F
0.3220123692174987 0.7839144762785237 0.2859892907832231  F  F  F
0.0944196041913986 0.2656979085533480 0.3261736398572222  F  F  F
0.4057610350940408 0.5543502093704942 0.2648316337455521  F  F  F
0.7374811422528618 0.0176129500073591 0.3555206632218969  F  F  F
0.4159753298345917 0.5381210179209257 0.1864060021540459  F  F  F
0.0501362981704445 0.6962184996994983 0.0756640684124562  F  F  F
0.9953897725897917 0.5409978202724268 0.2361720228662005  F  F  F
0.5172100664717076 0.4613476937338041 0.1409087386006711  F  F  F
0.9883937274904065 0.7854728828833726 0.2078512621266361  F  F  F
0.1706644816169747 0.9529855032911547 0.3127204202105177  F  F  F
0.5576686943332331 0.8435103950519992 0.1530837395576903  F  F  F
0.2203688492504821 0.0577930180252752 0.2789427450836029  F  F  F
0.3387636449981722 0.7307293094330831 0.3568782954862374  F  F  F
0.2727893992280207 0.5048219980196256 0.3858541483521518  F  F  F
0.4771896922483130 0.3643727528856053 0.3879021451771936  F  F  F
0.1472196278284630 0.2751852146320081 0.3963710984971744  F  F  F
0.5938687308751460 0.2629031561501285 0.3773290142136558  F  F  F
0.7276949411661654 0.1043125947088668 0.4112208581085766  F  F  F
0.8999891168292304 0.1334671858444258 0.3672210605377867  F  F  F
0.8276648825428102 0.7641382023934644 0.3928183643901523  F  F  F
0.8793300053219670 0.5415340889300859 0.3646555657204641  F  F  F
0.8623492021256898 0.4057724620446884 0.3719145563721429  F  F  F
0.7716990329425799 0.3930392091890075 0.3147457326930594  F  F  F
0.0071946406752747 0.5365268617748836 0.3824083590549980  F  F  F
0.9899531396948238 0.4127882684490226 0.3665116331979787  F  F  F
0.5448723555740380 0.8656252784547976 0.3529934014546495  F  F  F
0.0876420744878480 0.7595249305040964 0.3589516062983988  F  F  F
0.1541691683722625 0.8769460528437453 0.3708700263819092  F  F  F
0.0337971831056313 0.9830716003993857 0.3511177245724289  F  F  F
0.4314811758806990 0.8225483106715120 0.3721054386204015  F  F  F
0.5208397276133486 0.9927292849687693 0.3451003306003899  F  F  F
0.6586181285355388 0.4449375273392863 0.0623082255562938  F  F  F
0.7758272663766168 0.4208338076060350 0.0421464885910012  F  F  F
0.6869245546794587 0.2039653242046863 0.0522900303994195  F  F  F
0.1275255129928496 0.2875942531340326 0.0504140887993572  F  F  F
0.1795616954207222 0.4955485357739025 0.0520206974380511  F  F  F
0.4358582768622711 0.8516529180727628 0.0201970450570387  F  F  F
0.2051736805492956 0.6785894053145466 0.0463788901948388  F  F  F
0.2664911000936635 0.9499730972853858 0.0494816840261182  F  F  F
0.8982513994901302 0.5806939213224228 0.0389902292226432  F  F  F
0.9082416863428469 0.4598428452842651 0.0583586134831636  F  F  F
0.8220284363189976 0.0093062698205635 0.0576996238485551  F  F  F
0.7818683808077463 0.1228523847199245 0.0338935539283457  F  F  F
0.1688885166854472 0.1622177602910272 0.0690276860144305  F  F  F
0.0269930995061565 0.0292268445816018 0.0460050006839530  F  F  F
0.1319918330970306 0.9668652943044134 0.0559543664255446  F  F  F
0.9522804837168252 0.2795681204125028 0.0567151626025054  F  F  F
0.9456560239976998 0.3687376147425403 0.1138304133065751  F  F  F
0.6126957200542922 0.1025563873350745 0.0693628060511464  F  F  F
0.3521518989568407 0.3856256277549740 0.1130963456752844  F  F  F
0.2171824111139962 0.6722598815408426 0.0934096320204123  F  F  F
0.3152399966567759 0.7187934622859564 0.3110412565577322  F  F  F
0.3563161357782670 0.7277182904650216 0.1055567914499889  F  F  F
0.2927278311245765 0.8539417658509593 0.2963987664805802  F  F  F
0.4437671321617200 0.5727836941325054 0.2250300116310512  F  F  F
0.3964252482391727 0.1030989832180597 0.2886883277782393  F  F  F
0.6269101093344857 0.1873520525758217 0.2308540323462194  F  F  F
0.9171127524955484 0.0405432215412102 0.2748731226506000  F  F  F
0.0739420877499339 0.7716090427601816 0.3117490198563195  F  F  F
0.8165217380729016 0.7381094996353315 0.3485522755873329  F  F  F
0.8145917310836464 0.5306706495060489 0.1470846052490463  F  F  F
0.4137996027829802 0.8369362644264079 0.0648793053078583  F  F  F
0.5299650460742216 0.3910302766986052 0.1575023411746130  F  F  F
0.4686831804297016 0.3569025586015335 0.3407579983398363  F  F  F
0.6542164059496939 0.6765406423385458 0.1792107757431286  F  F  F
0.4649730623268415 0.7136225116403466 0.2078202586155497  F  F  F
0.7708873996245710 0.3986113215819445 0.1601707071011066  F  F  F
0.8527065792549509 0.7770387399270641 0.1329638506083453  F  F  F
0.8572856546980904 0.9232854998066696 0.2488077770041498  F  F  F
0.8669975419843955 0.5369880848231554 0.3173595773874505  F  F  F
0.6185405773666383 0.1315847036510505 0.3082717338051065  F  F  F
0.7743478944709973 0.9970168066173803 0.1838121225928629  F  F  F
0.5929144208123188 0.5627306224870779 0.2283803094979344  F  F  F
0.6173143503861718 0.5673924100079786 0.3203652290267898  F  F  F
0.9608629869536807 0.0776174735155236 0.1929591315364922  F  F  F
0.3289007601555334 0.1479669280417974 0.1234406995398253  F  F  F
0.2894573617541000 0.9155712611569341 0.2142286727921691  F  F  F
0.7435755667818305 0.8803344760479023 0.1244939082026642  F  F  F
0.7662836969306119 0.6941282182703906 0.2380454791936871  F  F  F
0.9473328492218431 0.8454186195826427 0.1922051789641069  F  F  F
0.7268481165013705 0.0920204190021162 0.3639076744265057  F  F  F
0.1601481911313054 0.8794796089850547 0.3230858850396500  F  F  F
0.0765178807668180 0.0058375707008128 0.0793938351390561  F  F  F
0.4661445657926956 0.3239182872812524 0.2263059754453639  F  F  F
0.0432360577409680 0.2601892774027100 0.2914428287055945  F  F  F
0.4769400933406889 0.1776458498681525 0.2247257225849386  F  F  F
0.1977591132469885 0.3254490111375122 0.2182668558763545  F  F  F
0.0903686390307323 0.6563837749535035 0.2621464362848989  F  F  F
0.1335764840150782 0.1342880326646399 0.1077517475325023  F  F  F
0.0402680201042515 0.4966641677808320 0.2092982824509226  F  F  F
0.3837018289564511 0.8184524407979018 0.1779161114136528  F  F  F
0.4734027732722991 0.9814349367540826 0.3074018415782483  F  F  F
0.6364420445565431 0.8755888406956435 0.2540881858316477  F  F  F
0.2635523028754039 0.2792839418339636 0.1417672715438063  F  F  F
0.6494134554506903 0.0535408109005553 0.0970704421968358  F  F  F
0.5823303348332075 0.0098353893040780 0.2589320859203906  F  F  F
0.1526861275639220 0.4662634787224227 0.0928826616212315  F  F  F
0.5414994166003643 0.5241327795587742 0.1170260990146445  F  F  F
0.4648276439313745 0.0124281344460123 0.1185603341260741  F  F  F
0.8075417673087391 0.2610103500157623 0.1397301957379427  F  F  F
0.6876356785522847 0.2610646463181632 0.0842028962525928  F  F  F
0.5655631085348896 0.2557024582133464 0.3331450516172138  F  F  F
0.4753606777540936 0.8474498480104496 0.3367303824328053  F  F  F
0.0647704765768939 0.1733833639325001 0.2191697743458230  F  F  F
0.1580247222535040 0.0151305995797608 0.2862450208846866  F  F  F
0.8444416035873074 0.1213748404573710 0.1487246813982792  F  F  F
0.9911926616596973 0.5598844825205525 0.2821411453709313  F  F  F
0.2960920260003209 0.9188806544343516 0.0889304613176124  F  F  F
0.8528641400368018 0.1425940356239146 0.3290791591536927  F  F  F
0.2501586117848375 0.5306005146253288 0.3427475129623410  F  F  F
0.0325453256927010 0.9554429980620963 0.1586991626335575  F  F  F
0.1582981919566462 0.9678679372547641 0.2020121919771396  F  F  F
0.2643524838143783 0.1116378283073558 0.2591269323582588  F  F  F
0.0369105780755290 0.5389293201079507 0.1220446384303673  F  F  F
0.7911446274809605 0.0753071103640379 0.0718950533673993  F  F  F
0.3562880585972541 0.3558104694613136 0.2861844546888037  F  F  F
0.0808379612541437 0.6802980037168642 0.1188235367497722  F  F  F
0.1839855607161169 0.1055368192359036 0.1882205226429829  F  F  F
0.2747770926327961 0.4463899513612542 0.2403361893000179  F  F  F
0.1484715778776648 0.3157878716437673 0.0929710958651559  F  F  F
0.5406113908183788 0.7722666943796964 0.2772258327069218  F  F  F
0.2511899661816412 0.2518551860956510 0.2899902917623612  F  F  F
0.7188848737998688 0.3993677075382885 0.0709194431161259  F  F  F
0.8682271315514326 0.6576561106643556 0.1834224951323862  F  F  F
0.4957663366089374 0.8758484100961093 0.1347771922739659  F  F  F
0.3734815575355414 0.5866640545026452 0.3036694367552958  F  F  F
0.6468148696980128 0.4242482045880914 0.2089380840138025  F  F  F
0.8460496710901786 0.3989510369764999 0.3242808501045573  F  F  F
0.7640850124107361 0.8207010002835466 0.2808130668096236  F  F  F
0.6274053557625285 0.8241033487723585 0.1682850871070521  F  F  F
0.6066713953871411 0.3169153381562491 0.2570509896356891  F  F  F
0.4713225731019900 0.1470190039217875 0.1382037186818701  F  F  F
0.5454567156962978 0.2659862021383086 0.1056315994494056  F  F  F
0.4780112989751538 0.6597967165373034 0.1231409871976027  F  F  F
0.0258432665644921 0.4765620393996625 0.3535922034069747  F  F  F
0.9080351018048604 0.2689455926621917 0.3267524545794732  F  F  F
0.0379847940073529 0.0495845225193913 0.3273149674398051  F  F  F
0.3365149094592187 0.0126339952531538 0.1568191034399251  F  F  F
0.3581634888794497 0.4951109732351922 0.1717453285020236  F  F  F
0.1561597808178499 0.2889986169378564 0.3497958862255700  F  F  F
0.1497690072569134 0.4291948297467901 0.3246095404797247  F  F  F
0.6781923951628542 0.5756883352912696 0.1215448459350378  F  F  F
0.2325937993050211 0.5516058463113602 0.1432413497226156  F  F  F
0.1756740624307135 0.5535498387686848 0.2247004353073425  F  F  F
0.0058923175943706 0.7145843566756601 0.1932511795004908  F  F  F
0.7499973331826816 0.6222385418752686 0.3175068495321610  F  F  F
0.9364208412080183 0.2950770560518806 0.1027707100843312  F  F  F
0.6484192958059340 0.0678200718646033 0.1888247554728174  F  F  F
0.0791429246195117 0.3793155776951944 0.2476411820898104  F  F  F
0.9071491739963229 0.5325697028779668 0.0757684749139965  F  F  F
0.0535831938287503 0.2399077115598042 0.1405412492588282  F  F  F
0.7298637970910864 0.5844298029654171 0.0636593806178463  F  F  F
0.5659617719088669 0.4800090688464601 0.0603467687874110  F  F  F
0.3211166893412411 0.4104487007454518 0.0534890162913500  F  F  F
0.4510324569367828 0.3530100485364060 0.1004408447797803  F  F  F
0.4654046982477362 0.5920788943559163 0.3362599398001102  F  F  F
0.5580524582370047 0.6161942381212520 0.3663556778525104  F  F  F
0.5745098739421869 0.4697479605919919 0.3312836645468247  F  F  F
0.2078751264082274 0.7185983053803732 0.2994061582328784  F  F  F
0.3072044253002406 0.7491441633450118 0.3738175620988082  F  F  F
0.2173896470968659 0.6300527894933289 0.3359896896742154  F  F  F
0.2864775061510992 0.4616396827601231 0.3868963153740759  F  F  F
0.5192017805302880 0.4022190024895718 0.2913272071191439  F  F  F
0.4593592087586766 0.3994154650504976 0.4022347815829192  F  F  F
0.1293324968314774 0.2350630620853819 0.4033887373867858  F  F  F
0.5760169102602022 0.6920782682095097 0.3146289289313549  F  F  F
0.5725984637785564 0.2921259665181037 0.3945943532291316  F  F  F
0.3783131693726491 0.1876618709120850 0.3262030313099260  F  F  F
0.7052071461603481 0.1405567560066036 0.4208447821000193  F  F  F
0.9020925185723122 0.1708013997405533 0.3838272636260645  F  F  F
0.8958314201913877 0.6874060676011237 0.3177548723033262  F  F  F
0.7940156307146071 0.7873359571150406 0.4050333560174570  F  F  F
0.9224678412210823 0.5467782498373012 0.3742276334018015  F  F  F
0.7485595969301405 0.3556926731932166 0.3216977288055083  F  F  F
0.8490675304390025 0.4454540841676714 0.3834792457399733  F  F  F
0.0224562745009836 0.5357215854742170 0.4091451175673682  F  F  F
0.9440860940604011 0.4137157818901983 0.3706904541134076  F  F  F
0.9652372481927550 0.7646959824926474 0.3149622018498918  F  F  F
0.0893947408068066 0.7164375665044652 0.3678167865006310  F  F  F
0.1338463309430275 0.8385889962838733 0.3798776692811658  F  F  F
0.9814091559630265 0.1190719057836445 0.3607642950032573  F  F  F
0.0659003751013337 0.9730017636280450 0.3701854582060120  F  F  F
0.5503383943294622 0.9107893176869398 0.3567211559540658  F  F  F
0.4001753946915705 0.7901769412885211 0.3662103437133170  F  F  F
0.3619334439238115 0.9029915782087989 0.3348781030441133  F  F  F
0.7200410752051158 0.9877762680882293 0.3738314086753955  F  F  F
0.5513638301813842 0.0259230107879502 0.3409444569725077  F  F  F
0.9338673322260732 0.3003591181045884 0.3883474268616649  F  F  F
0.8185807612560932 0.4253246977946513 0.0516019131569743  F  F  F
0.6702353784809507 0.4895044218909241 0.0606320514751868  F  F  F
0.7258657073915514 0.1834368936475405 0.0435030966589838  F  F  F
0.3113294542399506 0.1016247820321626 0.0650037802309584  F  F  F
0.1398022149169834 0.2434307643795349 0.0479276363073019  F  F  F
0.2239385992229606 0.4888392103354499 0.0477828922405571  F  F  F
0.2517950906098606 0.8221335951509942 0.0972701474354525  F  F  F
0.4773491064911209 0.2762675582650851 0.0555923228226611  F  F  F
0.4564836318965110 0.8191401733350959 0.0052943328896640  F  F  F
0.1626774930216578 0.6726856309115766 0.0371331205114412  F  F  F
0.4147362647844844 0.9742531291200383 0.0659432620966207  F  F  F
0.0134489994980296 0.7229975046260380 0.0764955460896490  F  F  F
0.8808614554953701 0.7958175797649212 0.0709747861090476  F  F  F
0.7021541014152325 0.9298079889763279 0.0746370243880107  F  F  F
0.5242637700462340 0.7359537022147838 0.0891253507158894  F  F  F
0.2218276245392250 0.9606296983470609 0.0512629714161069  F  F  F
0.9222865452387093 0.6191161798641907 0.0397384853815367  F  F  F
0.9331490422435120 0.4525435813377534 0.0350094458236102  F  F  F
0.5953252770548474 0.9629448349963547 0.0947628482829135  F  F  F
0.7982991967587570 0.9712602134973726 0.0646018403909205  F  F  F
0.7787506614438721 0.1031675705501175 0.0083968283808176  F  F  F
0.2148240388410899 0.1562918364170775 0.0691794617336304  F  F  F
0.9844517177742248 0.0384631652277531 0.0540069502132612  F  F  F
0.9957792002819823 0.2828414855967705 0.0487058108686587  F  F  F
0.9317745398034838 0.3995561328560355 0.0944649521652823  F  F  F
0.1169041861145329 0.9373356412323813 0.0365554019441584  F  F  F
0.6351171388562987 0.1412577213978021 0.0618669864277738  F  F  F
0.3472837325428976 0.6173389661056168 0.5439980227134944  T  T  T
0.4051771743603584 0.3667761927246825 0.4796074250553528  T  T  T
0.6552116366035300 0.4773060440276573 0.3977734137711715  T  T  T
0.7224975985169547 0.5829290633783971 0.5314219561178550  T  T  T
0.5253223122390754 0.5999538684108260 0.4680840742600204  T  T  T
0.3995328850947549 0.5767663499724033 0.4663510988486448  T  T  T
0.4792851322020055 0.4815814013535697 0.4753455266596542  T  T  T
0.6277613985056615 0.5254070247968095 0.4789676996693622  T  T  T
0.5491454529911128 0.5151536130615320 0.4269432063665130  T  T  T
0.4504083647727822 0.6457193146644747 0.4264381880911866  T  T  T
0.4670692080557216 0.5625126650423553 0.5200492940395623  T  T  T
0.6132326137210701 0.6295541993878899 0.5002163183332221  T  T  T
0.3207508353056450 0.6097164819086253 0.5083916325425483  T  T  T
0.3929643316339090 0.4835533346784300 0.4349433422129738  T  T  T
0.4644043485654925 0.3754678602045698 0.4926028895925884  T  T  T
0.5800659895978278 0.4530317886761577 0.5147384828037379  T  T  T
0.6944142387928699 0.4909962663368131 0.4278063485368241  T  T  T
0.7273295646686346 0.5317624418049545 0.5083280514023262  T  T  T
