 O Si  H Mo  C  O                       
   1.00000000000000     
    21.3948993682999991    0.0000000000000000    0.0000000000000000
     0.0000000000000000   21.3948993682999991    0.0000000000000000
     0.0000000000000000    0.0000000000000000   34.1699981689000012
   O    Si   H    Mo   C 
   239   102    64     1     3
Direct
  0.2838828629040644  0.7110942539339905  0.1003330743894458
  0.6136186750203330  0.6254378446674944  0.2055340753299299
  0.1503178227582063  0.3909924961775723  0.0916316395009001
  0.3815633132626080  0.4398162061257049  0.1406917440631618
  0.6762585732348005  0.8482557574158297  0.1348843104755157
  0.1035683091838548  0.4663047327572023  0.3516318028504082
  0.0042031076359057  0.7584604569479433  0.3020489853715763
  0.6584780482675373  0.1429763628333857  0.1967123573561483
  0.2143949631582655  0.9169002328479740  0.2058115128573768
  0.8455483514185309  0.5316800102271336  0.1026991368518467
  0.4123785764513810  0.7697517175134225  0.2089058094697863
  0.5178352679217562  0.5531176957535949  0.2255305448555198
  0.1160599124718772  0.5134091902132526  0.2134800295699512
  0.5878985740595499  0.5092636305536108  0.3440725658021200
  0.4349810973188337  0.6481102727924497  0.2202695563129198
  0.1245363546441846  0.4169702118895832  0.2793471953524474
  0.5200907558060518  0.7348690524462663  0.2370321338205883
  0.3179703116702372  0.9831230376197277  0.1994109346686917
  0.3232005238923160  0.8574656487914813  0.1914463325459762
  0.8148226461000282  0.8747419073539831  0.2735254878333953
  0.9739783992831242  0.2477721059141182  0.3074745131489500
  0.9874189890986170  0.0427690189088177  0.2917060565734086
  0.0028399536547316  0.0207282157539616  0.1745606801738992
  0.0973216219524654  0.2963156335375703  0.1249965879907109
  0.5947210987373479  0.7346946444177302  0.2987793858528434
  0.4287412149649854  0.5817611098143485  0.3387203848612684
  0.8007795311240328  0.3269128803245572  0.1654964371914023
  0.0638044872147931  0.2046738434168392  0.2614346333863579
  0.5242608592773441  0.6888007962947335  0.0881876545507992
  0.1538138814866433  0.6144919924207136  0.2497060445972306
  0.5523872808017615  0.1775296717849832  0.2319761375855318
  0.7182295893833832  0.4128937227596799  0.1924604639345347
  0.5114570163411144  0.9504180156257930  0.1247576332176254
  0.2542224447171030  0.8636732308249165  0.1083388200058018
  0.6273467871528744  0.7478421309716119  0.1750131537413422
  0.7412800816393250  0.9051146315543638  0.0785266773322560
  0.6939105318794282  0.8510671437852929  0.2794368184952634
  0.7218634340030264  0.6823545675447643  0.2015671921984133
  0.2242195675552104  0.2841037390175763  0.1810676024777183
  0.1138824357519384  0.0611157336865631  0.1015601784480894
  0.5645103550842735  0.1841408337660260  0.3215940380600519
  0.7771176333628483  0.6712960678766017  0.3484940666043540
  0.2050158538675944  0.2834751365428121  0.2572227582861710
  0.6153763873802386  0.5357064727956916  0.1304335597371845
  0.3297235839607248  0.4649195586944533  0.2093752249658654
  0.3161238432320743  0.3348302433920946  0.1386426108052951
  0.3028857144800842  0.9723205176999772  0.1225276730384015
  0.4997057658998020  0.5868219063075009  0.1275414431341102
  0.8701070393226004  0.4641476375679084  0.3027403269807593
  0.5908352832711078  0.0647883752597735  0.2936600247556205
  0.4608657004847871  0.1388980228489066  0.1850929382255687
  0.4802124085409593  0.7915811903511082  0.3030721383226104
  0.5159065600192145  0.4131995740614978  0.3137401393847727
  0.1000011028402658  0.8421264147862613  0.3045849116761108
  0.3109989398767769  0.4157374048988241  0.2778765216980227
  0.7806736679270347  0.1293573927986633  0.3400798674876712
  0.4914934448052312  0.7021882609921075  0.1625677718149079
  0.9895161864945606  0.8957792250529443  0.1677801466207028
  0.8844147814517269  0.7338981654039941  0.3359164945421389
  0.6094520683804313  0.5675364081837523  0.2747802152708636
  0.7921225606544291  0.8208328201115450  0.1260276793304270
  0.8854944096633945  0.3377373610668786  0.3111478652867923
  0.8211030266075046  0.4588250235365224  0.1640754815948806
  0.6375242763091177  0.2629188467664300  0.2275630892934277
  0.8978945622703466  0.8166374681711343  0.1615094047478768
  0.8745575988917288  0.0944112316418159  0.2951197525871905
  0.4440172292679507  0.9119464441878637  0.3162562584429611
  0.1070053211858074  0.0597509274245318  0.3076296345021877
  0.0344808642399150  0.4253467475260651  0.2227861586744104
  0.5711039752829089  0.8411582785113823  0.2632296332737798
  0.0036772555961408  0.1312815034545981  0.2117657596461830
  0.2170491833999885  0.2863423664534578  0.1038698902728830
  0.4379183653844512  0.8695149770772405  0.1649236119195773
  0.4124137734222608  0.0070798129919585  0.1526316833076333
  0.1250084836025060  0.1279173410375551  0.2144261550943919
  0.1012038262450383  0.9399789257157315  0.1770890519355751
  0.3029129744428846  0.9027782303444164  0.2602812549557869
  0.3619674964052134  0.7773400379610728  0.1402947260595960
  0.5902976359346853  0.0433457484693418  0.2164075166909540
  0.3178318804257075  0.0863672373056031  0.1510620037795305
  0.4082007334310865  0.3518747805690886  0.2491999042259701
  0.5163958663947067  0.2081489953004065  0.1316870457432452
  0.6961767776806254  0.3280114870089249  0.0621469252626194
  0.8382409236463721  0.7081046132041020  0.1513026185525625
  0.8368593400055160  0.6694237685402387  0.2260501107661897
  0.6205228287961776  0.2581944649498677  0.1064477884949090
  0.3810474147375771  0.7690548946478428  0.0661739466221158
  0.4212472819360507  0.0355638570002914  0.3044872324953554
  0.3154141081180262  0.5473667089888052  0.3150475571037142
  0.2456646315601239  0.1249420646438338  0.2135373047979311
  0.7408025368292728  0.5482874913577013  0.1440892746075138
  0.6303273136333394  0.0587837365261181  0.1432202950595592
  0.8140344114288114  0.9623515438600599  0.2177351494540796
  0.1676155432855312  0.3629259314924465  0.3443468116026256
  0.2435551001079402  0.6938955992600692  0.3147697504562896
  0.0450322548849135  0.7220331677976001  0.1518255568437993
  0.6662823730874501  0.6474497486495076  0.1366886238435098
  0.7075935373286892  0.0230505390130969  0.2002947235191198
  0.6485456575071253  0.8626780418084011  0.2071307265979847
  0.4111131996483167  0.3539043327289607  0.0871906232868479
  0.5194397402694699  0.2626798316293968  0.0606129162461052
  0.9120569654937792  0.8831173217227444  0.2267621405617586
  0.5280888188866225  0.3362817959494480  0.1226045697122980
  0.4045826412304575  0.1582444716661504  0.1170056647274625
  0.7712126335474124  0.7677012595004128  0.2478844107306636
  0.6336507653995596  0.9801790790146654  0.0835317911000241
  0.2154570026050073  0.4712007412928537  0.3217373475156818
  0.0532715856888135  0.6796681433204730  0.2230979509360802
  0.8869110570152449  0.9713153921971404  0.2804439993776245
  0.1847658361991196  0.0310174652453054  0.1800643005263550
  0.3365644989681159  0.0880909461000152  0.2609710255135267
  0.0438885686044055  0.6143875888182151  0.2888667454822623
  0.9179739242182519  0.1103381496086312  0.1588089685749818
  0.4463508681560766  0.1427824493338082  0.2618828626216350
  0.1812396125052000  0.1391851301338968  0.1450852944016502
  0.1314739310735131  0.9893139708813521  0.2445476927151684
  0.3204798347990224  0.8836320502726919  0.3362560621395316
  0.2967064208116799  0.1369475473388392  0.0798967208911889
  0.8641676588341725  0.2715347874922125  0.1082723374017072
  0.8916093795188929  0.7667840602998144  0.0911453758636008
  0.1154110610804442  0.7175950094858873  0.2862166305482812
  0.4761590912393582  0.8393389730800103  0.0938896877814680
  0.4354410890481117  0.0126694571009317  0.0742949005589925
  0.2191671624352517  0.8403480364062096  0.3047557431004357
  0.8080494799734971  0.0602857472688637  0.1676045913919617
  0.9438771337234051  0.6712320553280594  0.1861477077696726
  0.3181149771036432  0.2902253049531328  0.2886770905563453
  0.9167299250643340  0.0515084123757761  0.2273663882265924
  0.7998276431989423  0.5647842947009809  0.3096282778003763
  0.3592569041266566  0.6609525597621153  0.2945662800425790
  0.5003652220016189  0.2922055493656235  0.3351288960702845
  0.6602559638810271  0.1184923820997497  0.3467047360799795
  0.9210890785373927  0.5790548570819340  0.2918107329656436
  0.9719791905946483  0.5513404927050564  0.0988747180089708
  0.5118893559138664  0.9834583092187263  0.2657743798025956
  0.4041587515041106  0.6681746959894146  0.1115218153182947
  0.3811057731063385  0.1429144355882839  0.3282149932687571
  0.4768795404834578  0.3679989742427330  0.1874331236097297
  0.0227338436264824  0.5070170353876804  0.1626907489217498
  0.0828676174184167  0.4955853550831260  0.0945026088518619
  0.2076951722232367  0.5800666474734623  0.1826023156701527
  0.9805838943948623  0.2541876817252754  0.1319664494234133
  0.1951655081962101  0.4893155860952829  0.1291992200576528
  0.3676427929852351  0.8952557268127053  0.0768045039685476
  0.3085510976996443  0.5373471878826670  0.1468211021444872
  0.7421295146937988  0.4035995042589384  0.1161548248583786
  0.1576646294886473  0.6994884051267404  0.1180196711424046
  0.5660628691269584  0.6299043964651025  0.3361808203640335
  0.6146649249341511  0.2955741174083231  0.3025295067659813
  0.4538702177339534  0.2493966607013057  0.2179442420191209
  0.2626263831005231  0.1787855074443001  0.2813121489809218
  0.6853996527253139  0.5903748369727750  0.3336238917074106
  0.5322316691791471  0.3287665926847729  0.2508836135305384
  0.3983100828819739  0.3633610011643327  0.3251268716858089
  0.2994413702812506  0.2114071433962101  0.1406551890245223
  0.5992936294096826  0.3901169867475369  0.1773854223546372
  0.5364845528142073  0.5134371362654859  0.0699160683206785
  0.2373447608665714  0.3899258561693576  0.2196071265330339
  0.6408464860695612  0.3846148611235884  0.2493414336311991
  0.0407721643159802  0.9619361256369741  0.1108586695928902
  0.8535224958535901  0.5851136039713906  0.1709175004108106
  0.6901388106983820  0.5713971368857539  0.0741972157692061
  0.6295919489121400  0.4976653805451738  0.2140092352142415
  0.0714075224710032  0.1748687759158218  0.1148190939464257
  0.9123447878120359  0.2665933878504581  0.3749097260173783
  0.8348330585354040  0.1156920646673293  0.1012735697380836
  0.5007280984521032  0.0797868823119790  0.1228539798974159
  0.6301452965077283  0.9516513452629215  0.2629241988255368
  0.2289765704030745  0.6016094028416886  0.1059892132009368
  0.0667453772890538  0.2285733824036486  0.1855965344668087
  0.7624523754966092  0.9405632442229581  0.1510912242273422
  0.8214846162939586  0.1926037043399231  0.1621536930520072
  0.2189073547492807  0.2550207124640888  0.3324494205289679
  0.0254703273202652  0.1115968998131785  0.3538977476225751
  0.7245949966174379  0.0615800486457995  0.0937289717375783
  0.3047648647090489  0.4147986066297533  0.0791504357018523
  0.7742593347773916  0.7909606757131024  0.3246245114698147
  0.0739446450129673  0.6070571738330277  0.1277393624564134
  0.8565570759343279  0.2158069349571562  0.3149759401605834
  0.1259791682811388  0.3454736582946123  0.2141638784439564
  0.0390415932575338  0.3278399671171903  0.2684818212502137
  0.6577712765265396  0.1631442932385402  0.2724212263909294
  0.2295090863229430  0.5085191365995765  0.2449339717673004
  0.7383897167366150  0.6551763370863507  0.2753317238237892
  0.7418362623581375  0.2504292794690829  0.1167452157947605
  0.0081674710543076  0.4977814928042376  0.3076030822081518
  0.2142053715861733  0.5864580297431022  0.3535213944303318
  0.3216475418887192  0.7829139513426918  0.2862956965325366
  0.0941359180350286  0.2644073622043175  0.3258402485848437
  0.4066761884263673  0.5545537742482539  0.2637370785030157
  0.7369805799902551  0.0176601068170233  0.3553134220964010
  0.4165306900479667  0.5378906085425584  0.1854879922142208
  0.0536164841326959  0.6989755131104418  0.0755861501252062
  0.9968860339849589  0.5411505626854454  0.2344045942577658
  0.5182074267833765  0.4612369124141752  0.1402982158618030
  0.9882993955040428  0.7856400626452258  0.2079467189113344
  0.1706029397048828  0.9533956865932708  0.3124436060840987
  0.5578126611255885  0.8434657454935991  0.1530591653589943
  0.2204208885892957  0.0581323536841322  0.2788259746194460
  0.3413466600018999  0.7309974855104012  0.3571262828211322
  0.2859719218400299  0.4954461292139381  0.3837839805951311
  0.4772725090138882  0.3908842391939192  0.3835075065420634
  0.1470049053256381  0.2746891060967162  0.3960318618024192
  0.6024400737919415  0.2613847004639886  0.3775309092198246
  0.7282962930426318  0.1043737171526530  0.4111374287398928
  0.8998526734157648  0.1333800654624258  0.3672113150927180
  0.8139842442502175  0.7637035334674708  0.3965063058915029
  0.8829459441519399  0.5430031587241656  0.3638874697572759
  0.8678903588528305  0.4083508471996837  0.3724073482351716
  0.7728472595907698  0.3951813191657131  0.3182606763593354
  0.0094704647092246  0.5373117099523781  0.3798861136857112
  0.9954812575693371  0.4124868357593452  0.3658768912431669
  0.5455290398531495  0.8651170765076379  0.3523467559146743
  0.0957111382338151  0.7583796104376356  0.3593766221252289
  0.1557487129900350  0.8788058409898516  0.3710493898170071
  0.0337633565604890  0.9830808191377235  0.3511055135205093
  0.4314032349747224  0.8233975342232449  0.3719306925488389
  0.5207717837752907  0.9927070975183001  0.3451764931482122
  0.6588329460499124  0.4448506522513287  0.0622676717463358
  0.7758615342341378  0.4208965517037894  0.0414176925548936
  0.6868906682442415  0.2039244197949644  0.0522130268358255
  0.1291481197757081  0.2890170258906203  0.0488193971719729
  0.1809137957195064  0.4912178781998728  0.0494973956933738
  0.4364409808957116  0.8534322206030210  0.0196936863477206
  0.2043365877677646  0.6812295003521732  0.0460614150332727
  0.2665069543956192  0.9499934470337433  0.0494915654350046
  0.8962331541168652  0.5869954745764219  0.0416632758899215
  0.9108084638256261  0.4621677428301067  0.0575001257851048
  0.8220125538821159  0.0092058647571335  0.0576722948910868
  0.7808821129390571  0.1222981482644403  0.0338682199625234
  0.1701923550324673  0.1617757198572824  0.0685575621961754
  0.0276508180770361  0.0289996314809769  0.0456153482177169
  0.1328100203013615  0.9664014137217380  0.0552751486985809
  0.9520378469434577  0.2793974459060548  0.0558994526555780
  0.9456215770590216  0.3680757119793284  0.1133126679828790
  0.6126429604623603  0.1024915637579773  0.0694563323546943
  0.5391498496990508  0.6635929756233233  0.4327782279490787
  0.6877554089758585  0.5382729250387186  0.4426405771853000
  0.5204740157652757  0.5249426776709918  0.4965390058001909
  0.3536367594068827  0.3855463883680063  0.1118742794736867
  0.2183090975431876  0.6735553005072020  0.0928178195732197
  0.3166476180395121  0.7181450989128282  0.3118079947860377
  0.3578505998873631  0.7284088362827205  0.1045407598203842
  0.2931199169602097  0.8533712611243947  0.2964107151201453
  0.4440643113021374  0.5731467262234622  0.2239093319626593
  0.3967405683422153  0.1029147763739160  0.2886300566273499
  0.6275284300310067  0.1866023673812116  0.2307699915789582
  0.9172180114444718  0.0405982559587929  0.2745958635452420
  0.0770186747354676  0.7704264326520578  0.3129172164657019
  0.8114815940938416  0.7398601131430991  0.3512938168441584
  0.8153284936865620  0.5307009700538018  0.1468190902202874
  0.4146254304932271  0.8380250133823819  0.0643466259835074
  0.5311096027109811  0.3908243387670420  0.1565177064451967
  0.4715199903079205  0.3634098579544066  0.3386666945686120
  0.6548131885390414  0.6768889955877031  0.1803336860655933
  0.4650764909614796  0.7143336453011954  0.2071555344436997
  0.7720753220497706  0.3985470522477529  0.1596182015973074
  0.8536185147670273  0.7775566353784022  0.1326161632411114
  0.8569571007257719  0.9230718731457896  0.2486459476595629
  0.8694245387671552  0.5377227004864700  0.3166898890886683
  0.6182659319352398  0.1325425616595741  0.3085163451566501
  0.7741429622835937  0.9964120794683434  0.1834838645156458
  0.5931169615800128  0.5614876316428471  0.2285220039584453
  0.6141439628538364  0.5736385704288859  0.3214387785332644
  0.9609359197328701  0.0775448491620315  0.1924964090089682
  0.3296843432534088  0.1477058900328552  0.1232823635085414
  0.2898513816647365  0.9154988528247466  0.2140446680189671
  0.7437256828761621  0.8796871198318614  0.1240787612669745
  0.7671079119092074  0.6935949397329422  0.2385473485353362
  0.9477606235856684  0.8457784078969258  0.1919783315421078
  0.7268345507985273  0.0920049289604810  0.3638626526738044
  0.1607935507805474  0.8799510223870104  0.3232424663683615
  0.0773724928023614  0.0053557305573227  0.0788113778123889
  0.4671267157785677  0.3232748062623442  0.2254413906730968
  0.0434867069609252  0.2608020776099805  0.2906935055165051
  0.4776374890719571  0.1770034620311254  0.2245427712109183
  0.1988049078534226  0.3252359803672111  0.2174313964779634
  0.0915574194388155  0.6560959916897421  0.2614747631609531
  0.1344202345267394  0.1337188538492358  0.1070677308129162
  0.0424812996702004  0.4969365247592754  0.2079141270001229
  0.3838732523521046  0.8188752013664443  0.1772518076052523
  0.4734970916647890  0.9810813889115921  0.3075066903490382
  0.6359380141950635  0.8767000851454224  0.2535873892062386
  0.2644348253060595  0.2789125303608615  0.1406988314356540
  0.6491370239655523  0.0529771978069270  0.0969801267937029
  0.5821717033651428  0.0105564918843762  0.2591770307762640
  0.1534440884441692  0.4662484712614368  0.0913482520889612
  0.5420431151138051  0.5247719277011811  0.1169569411605055
  0.4650942779558512  0.0123789137484798  0.1183718079975120
  0.8078235768500275  0.2606035855109051  0.1394033198947949
  0.6877104630704941  0.2610055697863491  0.0840693309086796
  0.5697149539950190  0.2581911933144219  0.3342420942615262
  0.4757174740878844  0.8469674986065524  0.3365941507789622
  0.0648785094048278  0.1736309170373329  0.2183132606233738
  0.1579693288265573  0.0155840334495169  0.2861625582386725
  0.8441650929839164  0.1210829432756075  0.1486242421079793
  0.9929267066773227  0.5587840771954035  0.2806173312379476
  0.2963126717710947  0.9189932770084384  0.0888562446852465
  0.8528773340138702  0.1424602121342782  0.3289987107166032
  0.2573480124708994  0.5260173861235521  0.3434772405462446
  0.0331874119045068  0.9556594238992000  0.1582673423380496
  0.1586451043288967  0.9686129554441264  0.2020603120033837
  0.2646714122010714  0.1116643757036030  0.2589768794605257
  0.0386103945448851  0.5402250111546700  0.1211391868436086
  0.7907189174168379  0.0749045399369528  0.0718812943159463
  0.3571883713134746  0.3557475419354145  0.2846940071928902
  0.0828541983293763  0.6818989787197578  0.1190009530288084
  0.1843755442981961  0.1060720919930804  0.1880067065202331
  0.2751768618191817  0.4469223701534381  0.2395733651394344
  0.1488807864290758  0.3156048461504837  0.0920263963027599
  0.5412005676277807  0.7741118484604050  0.2761341112246116
  0.2512421735467429  0.2519835819327379  0.2894846889423510
  0.7192963018544493  0.3993673952079905  0.0705096216696715
  0.8685023199734697  0.6581417286245628  0.1830206986265253
  0.4962084524254214  0.8760273592055461  0.1345699540547927
  0.3771513362466417  0.5871777253051266  0.3033182188671482
  0.6476480680979009  0.4239453750680890  0.2078353222425810
  0.8481069899198503  0.4003039968588651  0.3253721406259906
  0.7633589206166044  0.8211659529242828  0.2815390934761469
  0.6276176731084457  0.8239886475543210  0.1681814345586919
  0.6079807014239486  0.3167152507404001  0.2566598805138328
  0.4720627513269068  0.1467392142153397  0.1381198950556196
  0.5454395282882372  0.2655134597204355  0.1053194488870660
  0.4795367441304478  0.6604463946663458  0.1227105278721934
  0.0288745077012937  0.4768638306473059  0.3516070090840714
  0.9081669440600008  0.2689867984477506  0.3265641017250600
  0.0379618131613113  0.0496398253493100  0.3273262945763712
  0.3368294042401375  0.0125526397485155  0.1567893942841390
  0.3590685398706160  0.4948769793215782  0.1702975660772929
  0.1555872008136467  0.2884099814281559  0.3494231961199997
  0.1526555832429886  0.4292266116560006  0.3234102177010356
  0.6786662751300622  0.5759015456516046  0.1219476756752372
  0.2346746626028988  0.5517520019611436  0.1413469146440655
  0.1776881510502507  0.5542561919369464  0.2234988445841298
  0.0062350550889668  0.7149913715776030  0.1929985164167208
  0.7503336677869050  0.6209519540889811  0.3171461698952753
  0.9364448891709974  0.2944131920419298  0.1020310465154396
  0.6481989624533172  0.0671106328042735  0.1886535404667155
  0.0816675018363673  0.3795506125345249  0.2466846115660681
  0.9078666200078793  0.5343218189655030  0.0758583144042291
  0.0537620146669864  0.2387300386942602  0.1392101655201758
  0.7310661388615030  0.5829233430205690  0.0641795853502666
  0.5649735723173291  0.4816755098683175  0.0596127100373694
  0.3273119430412049  0.4336989043513903  0.0574646179945635
  0.4526436407127576  0.3537784644133091  0.0994125917466806
  0.4679750209767131  0.6043847505390720  0.3352290755591497
  0.5590589193506020  0.6275562984361428  0.3650383589846417
  0.5654658763507040  0.4755579973425150  0.3295879180689029
  0.2093994334028945  0.7143710619458515  0.3007335532653694
  0.3095088048778690  0.7440369221786375  0.3756508506281036
  0.2226513679554779  0.6254356759958348  0.3389313975159961
  0.2741919543310082  0.4526135955980216  0.3892961300196116
  0.5268674326187675  0.3971325871819908  0.2876749287663304
  0.4428205284338108  0.3835308169233251  0.4016195693989490
  0.1309203826072751  0.2339742693070367  0.4033633181047431
  0.5815883734834275  0.6990819721335210  0.3152301844815884
  0.5850894194330257  0.2901890902241480  0.3965568410638847
  0.3736868854646703  0.1873358448232835  0.3250473723816425
  0.7056451919597312  0.1403091583996661  0.4209847466556030
  0.9022602985853055  0.1708298831407757  0.3836309672704566
  0.8990677471194094  0.6925879281678046  0.3284501503603588
  0.7754276435833870  0.7778937794570658  0.4084563092669920
  0.9266078210190596  0.5475196124345068  0.3728468017795754
  0.7511585580887460  0.3566453597012559  0.3245029886752535
  0.8583066670155488  0.4499658958922029  0.3828979509529575
  0.0264801476548826  0.5382228187840943  0.4062126232027042
  0.9495501592797284  0.4125397658500775  0.3700859568288571
  0.9685055864356140  0.7708913834454553  0.3180029154494268
  0.0953927898238946  0.7155236008639343  0.3687450004791926
  0.1381623728948177  0.8397346950053719  0.3809448340800121
  0.9812994697840022  0.1187124742801519  0.3609472624042608
  0.0657179914177317  0.9730187628274746  0.3702889314427646
  0.5508368341441975  0.9100244056103931  0.3570026380633980
  0.4009109163648850  0.7899178754111581  0.3668668743588531
  0.3623843791894696  0.9017629930462979  0.3352148809583059
  0.7230018724374182  0.9877822172912716  0.3747225120170216
  0.5513240544484161  0.0258559263182104  0.3410154405151977
  0.9372919843620992  0.2980931454267783  0.3880962046885817
  0.8188148005802609  0.4243612161406141  0.0505956140408073
  0.6701952139688294  0.4894757320831236  0.0608629529899792
  0.7256085711656758  0.1829945842259783  0.0433751477767534
  0.3131392518426965  0.1025764504091626  0.0643414125194875
  0.1410285448781880  0.2448549281371174  0.0458213262463150
  0.2185715282349694  0.4697736876488288  0.0411416043333126
  0.2526800047459392  0.8219350501875862  0.0973237418877795
  0.4769532670630977  0.2767279808087046  0.0555510877018404
  0.4572933313588676  0.8213328755314746  0.0045593261957612
  0.1608242817230155  0.6797071951054612  0.0380487065121190
  0.4144558121909696  0.9744314942413195  0.0658518517397908
  0.0173181487724371  0.7264015103296405  0.0761112780430982
  0.8670789862504350  0.7520538529289663  0.0691373885571325
  0.7021095487861980  0.9290046854941388  0.0742477595104249
  0.5277034909146407  0.7341127681712099  0.0874390664209308
  0.2217301693426687  0.9603640357829467  0.0511453028043507
  0.9322277761199681  0.6121797188682013  0.0346845291231089
  0.9377300398358622  0.4552874210752106  0.0350040632609250
  0.5951981611629231  0.9625620079487726  0.0944453116091413
  0.7989246637520967  0.9706783246344474  0.0643470725974667
  0.7785253705380597  0.1025949645659627  0.0083416056173074
  0.2161058137386030  0.1558485227114138  0.0688790714312158
  0.9844608827712382  0.0356321727235689  0.0532609965539050
  0.9955233636674359  0.2821659220499462  0.0478188761023930
  0.9327019586995049  0.3992018511052726  0.0939074486667204
  0.1176740207446400  0.9370381299060904  0.0357943293476339
  0.6352617079726427  0.1410324138191407  0.0618897804644498
  0.5552728931814924  0.5254092873219817  0.4081211434894313
  0.5308066023706823  0.5220153436421155  0.4628453569957950
  0.5453440542524656  0.6115975125803808  0.4215435255339093
  0.6375343512971954  0.5333755994884840  0.4288305871111344
 
  0.00000000E+00  0.00000000E+00  0.00000000E+00
  0.00000000E+00  0.00000000E+00  0.00000000E+00
  0.00000000E+00  0.00000000E+00  0.00000000E+00
  0.00000000E+00  0.00000000E+00  0.00000000E+00
  0.00000000E+00  0.00000000E+00  0.00000000E+00
  0.00000000E+00  0.00000000E+00  0.00000000E+00
  0.00000000E+00  0.00000000E+00  0.00000000E+00
  0.00000000E+00  0.00000000E+00  0.00000000E+00
  0.00000000E+00  0.00000000E+00  0.00000000E+00
  0.00000000E+00  0.00000000E+00  0.00000000E+00
  0.00000000E+00  0.00000000E+00  0.00000000E+00
  0.00000000E+00  0.00000000E+00  0.00000000E+00
  0.00000000E+00  0.00000000E+00  0.00000000E+00
  0.00000000E+00  0.00000000E+00  0.00000000E+00
  0.00000000E+00  0.00000000E+00  0.00000000E+00
  0.00000000E+00  0.00000000E+00  0.00000000E+00
  0.00000000E+00  0.00000000E+00  0.00000000E+00
  0.00000000E+00  0.00000000E+00  0.00000000E+00
  0.00000000E+00  0.00000000E+00  0.00000000E+00
  0.00000000E+00  0.00000000E+00  0.00000000E+00
  0.00000000E+00  0.00000000E+00  0.00000000E+00
  0.00000000E+00  0.00000000E+00  0.00000000E+00
  0.00000000E+00  0.00000000E+00  0.00000000E+00
  0.00000000E+00  0.00000000E+00  0.00000000E+00
  0.00000000E+00  0.00000000E+00  0.00000000E+00
  0.00000000E+00  0.00000000E+00  0.00000000E+00
  0.00000000E+00  0.00000000E+00  0.00000000E+00
  0.00000000E+00  0.00000000E+00  0.00000000E+00
  0.00000000E+00  0.00000000E+00  0.00000000E+00
  0.00000000E+00  0.00000000E+00  0.00000000E+00
  0.00000000E+00  0.00000000E+00  0.00000000E+00
  0.00000000E+00  0.00000000E+00  0.00000000E+00
  0.00000000E+00  0.00000000E+00  0.00000000E+00
  0.00000000E+00  0.00000000E+00  0.00000000E+00
  0.00000000E+00  0.00000000E+00  0.00000000E+00
  0.00000000E+00  0.00000000E+00  0.00000000E+00
  0.00000000E+00  0.00000000E+00  0.00000000E+00
  0.00000000E+00  0.00000000E+00  0.00000000E+00
  0.00000000E+00  0.00000000E+00  0.00000000E+00
  0.00000000E+00  0.00000000E+00  0.00000000E+00
  0.00000000E+00  0.00000000E+00  0.00000000E+00
  0.00000000E+00  0.00000000E+00  0.00000000E+00
  0.00000000E+00  0.00000000E+00  0.00000000E+00
  0.00000000E+00  0.00000000E+00  0.00000000E+00
  0.00000000E+00  0.00000000E+00  0.00000000E+00
  0.00000000E+00  0.00000000E+00  0.00000000E+00
  0.00000000E+00  0.00000000E+00  0.00000000E+00
  0.00000000E+00  0.00000000E+00  0.00000000E+00
  0.00000000E+00  0.00000000E+00  0.00000000E+00
  0.00000000E+00  0.00000000E+00  0.00000000E+00
  0.00000000E+00  0.00000000E+00  0.00000000E+00
  0.00000000E+00  0.00000000E+00  0.00000000E+00
  0.00000000E+00  0.00000000E+00  0.00000000E+00
  0.00000000E+00  0.00000000E+00  0.00000000E+00
  0.00000000E+00  0.00000000E+00  0.00000000E+00
  0.00000000E+00  0.00000000E+00  0.00000000E+00
  0.00000000E+00  0.00000000E+00  0.00000000E+00
  0.00000000E+00  0.00000000E+00  0.00000000E+00
  0.00000000E+00  0.00000000E+00  0.00000000E+00
  0.00000000E+00  0.00000000E+00  0.00000000E+00
  0.00000000E+00  0.00000000E+00  0.00000000E+00
  0.00000000E+00  0.00000000E+00  0.00000000E+00
  0.00000000E+00  0.00000000E+00  0.00000000E+00
  0.00000000E+00  0.00000000E+00  0.00000000E+00
  0.00000000E+00  0.00000000E+00  0.00000000E+00
  0.00000000E+00  0.00000000E+00  0.00000000E+00
  0.00000000E+00  0.00000000E+00  0.00000000E+00
  0.00000000E+00  0.00000000E+00  0.00000000E+00
  0.00000000E+00  0.00000000E+00  0.00000000E+00
  0.00000000E+00  0.00000000E+00  0.00000000E+00
  0.00000000E+00  0.00000000E+00  0.00000000E+00
  0.00000000E+00  0.00000000E+00  0.00000000E+00
  0.00000000E+00  0.00000000E+00  0.00000000E+00
  0.00000000E+00  0.00000000E+00  0.00000000E+00
  0.00000000E+00  0.00000000E+00  0.00000000E+00
  0.00000000E+00  0.00000000E+00  0.00000000E+00
  0.00000000E+00  0.00000000E+00  0.00000000E+00
  0.00000000E+00  0.00000000E+00  0.00000000E+00
  0.00000000E+00  0.00000000E+00  0.00000000E+00
  0.00000000E+00  0.00000000E+00  0.00000000E+00
  0.00000000E+00  0.00000000E+00  0.00000000E+00
  0.00000000E+00  0.00000000E+00  0.00000000E+00
  0.00000000E+00  0.00000000E+00  0.00000000E+00
  0.00000000E+00  0.00000000E+00  0.00000000E+00
  0.00000000E+00  0.00000000E+00  0.00000000E+00
  0.00000000E+00  0.00000000E+00  0.00000000E+00
  0.00000000E+00  0.00000000E+00  0.00000000E+00
  0.00000000E+00  0.00000000E+00  0.00000000E+00
  0.00000000E+00  0.00000000E+00  0.00000000E+00
  0.00000000E+00  0.00000000E+00  0.00000000E+00
  0.00000000E+00  0.00000000E+00  0.00000000E+00
  0.00000000E+00  0.00000000E+00  0.00000000E+00
  0.00000000E+00  0.00000000E+00  0.00000000E+00
  0.00000000E+00  0.00000000E+00  0.00000000E+00
  0.00000000E+00  0.00000000E+00  0.00000000E+00
  0.00000000E+00  0.00000000E+00  0.00000000E+00