 H  S                                   
   1.00000000000000     
    21.3948993682999991    0.0000000000000000    0.0000000000000000
     0.0000000000000000   21.3948993682999991    0.0000000000000000
     0.0000000000000000    0.0000000000000000   34.1699981689000012
   H    S 
     2     1
Direct
  0.5639163259999975  0.4936997590000018  0.5083863739999970
  0.4736903909999981  0.4938861130000021  0.5083730819999985
  0.5189152960000030  0.5377959610000005  0.5078269239999997
 
  0.00000000E+00  0.00000000E+00  0.00000000E+00
  0.00000000E+00  0.00000000E+00  0.00000000E+00
  0.00000000E+00  0.00000000E+00  0.00000000E+00
