 O Si  H Mo  S                          
   1.00000000000000     
    21.3948993682999991    0.0000000000000000    0.0000000000000000
     0.0000000000000000   21.3948993682999991    0.0000000000000000
     0.0000000000000000    0.0000000000000000   34.1699981689000012
   O    Si   H    Mo   S 
   236   102    68     4    10
Direct
  0.2822708376887162  0.7105605703778546  0.1013942358695921
  0.6109374830265148  0.6249887201664514  0.2026963108335461
  0.1507539764282161  0.3910160496058740  0.0914268595500904
  0.3793735528961136  0.4411507474670593  0.1410407670544177
  0.6762672874230766  0.8487148629143392  0.1352199152789104
  0.1000124029536556  0.4626626454243212  0.3541695773762320
  0.0021039586279484  0.7626783696246280  0.2980773591634088
  0.6581252903971828  0.1436635357060213  0.1968645250839635
  0.2142350234328103  0.9161641347268455  0.2053672321327954
  0.8452828284527369  0.5324105899484886  0.1031789416408039
  0.4125760939114059  0.7692331726115091  0.2094275037454608
  0.5174584269263424  0.5522452079248011  0.2267571109564529
  0.1139933693457066  0.5124488390807215  0.2150731937847402
  0.6112142286155805  0.4963099226386534  0.3365444396488876
  0.4347194117063490  0.6478705322505236  0.2215354905921892
  0.1202297137964592  0.4168301813209763  0.2810373956989600
  0.5202947797830141  0.7344759590438150  0.2374819330950115
  0.3177165275476441  0.9829796475128163  0.1994286718054558
  0.3233463426917546  0.8568339910129441  0.1926964961409068
  0.8152164681472626  0.8746190952783519  0.2734845700330599
  0.9741602972637188  0.2464202047911583  0.3086532411581472
  0.9873836155147466  0.0427371160745407  0.2917498168140775
  0.0030345821272119  0.0206404499667302  0.1753429854114570
  0.0975610741820212  0.2975833035467583  0.1266640858552994
  0.5906902054920651  0.7300376749578470  0.3013909960588734
  0.4218003794631425  0.5801051708772894  0.3405200931781817
  0.8000059492041517  0.3270841629372788  0.1659893005730745
  0.0640954410090742  0.2038264994565930  0.2624508074488450
  0.5208938856066343  0.6905958514004311  0.0884942200699999
  0.1519074722044211  0.6130484308020151  0.2515375046011282
  0.5517936466109379  0.1771766032945946  0.2318995584170391
  0.7171530269715183  0.4131947303705134  0.1929413917143084
  0.5109160593077281  0.9502468745238848  0.1248891863303942
  0.2536755860022181  0.8637750880806091  0.1084339524271155
  0.6275259207043427  0.7479690602946792  0.1747490199247650
  0.7413600105812876  0.9059940095537701  0.0789876881280879
  0.6948739941819031  0.8511447532676549  0.2800075190466549
  0.7208715435690953  0.6806465662001882  0.2013874783154396
  0.2221086630265371  0.2836153717950571  0.1817907438585097
  0.1123067706269477  0.0618263588424797  0.1023100692962196
  0.5634985652637057  0.1811339716966447  0.3215045586331749
  0.7795377882493161  0.6711224629842609  0.3490298024966114
  0.2047342906406197  0.2838102873744622  0.2579944630331928
  0.6148927603770661  0.5356668183158414  0.1303909910835083
  0.3308718776650549  0.4640185978878593  0.2111091793592927
  0.3150178168117639  0.3355964012796191  0.1408720511822302
  0.3026871131353099  0.9723403832975164  0.1225192801455412
  0.4988111688904971  0.5862038026320076  0.1270035591066929
  0.8686428424828992  0.4637394057333915  0.3028181496408593
  0.5925629140938096  0.0631791890150892  0.2935100848153216
  0.4596679952143248  0.1397625401343600  0.1851557541220037
  0.4793897612396409  0.7922459754497072  0.3031967432105918
  0.5125923662503249  0.4108462026141056  0.3191143310089642
  0.0996235051181333  0.8425444174985621  0.3037500632574773
  0.3091674528169284  0.4152222648668927  0.2791109015330249
  0.7807327564781060  0.1293862597326691  0.3402608205179042
  0.4911183692777987  0.7004251449990709  0.1633728140410564
  0.9885801730291660  0.8955085563198125  0.1676241141940142
  0.8867809435144632  0.7280336296406551  0.3293862746602064
  0.6120409403846028  0.5753699281373698  0.2735219702411062
  0.7922939016513735  0.8217144379784491  0.1260804922397346
  0.8860647248467962  0.3375618588498098  0.3107420570436694
  0.8203370815280020  0.4586746437392682  0.1641575381536244
  0.6366399440529767  0.2635600618936118  0.2274666942632902
  0.8963841940505201  0.8159390055742216  0.1626026146306430
  0.8743931035617332  0.0942813741254448  0.2953466226726282
  0.4438318030833790  0.9122502529071413  0.3164390037152459
  0.1070095960203184  0.0595382585312515  0.3075435026657346
  0.0313395491486046  0.4249084323153724  0.2239323768547794
  0.5734303179863466  0.8380166119246422  0.2650755968337078
  0.0033778058948751  0.1313281569056915  0.2124226296443935
  0.2169508696480885  0.2866163068921686  0.1044748286450422
  0.4376836462990627  0.8689867206131346  0.1652634210405579
  0.4121025255652020  0.0068969563174689  0.1527611316276617
  0.1246017136771567  0.1273198572835227  0.2146178811255751
  0.1005138848546868  0.9390856268748428  0.1773762845674070
  0.3015018589388546  0.9040913660076239  0.2606798596428307
  0.3610295757297952  0.7769320273375487  0.1411927353782509
  0.5905599170199853  0.0428516902798452  0.2163095904126562
  0.3175029144835934  0.0863800707761405  0.1511685461677901
  0.4080195151928029  0.3522265873785875  0.2510472848942570
  0.5157373392911985  0.2082388116227878  0.1313865282850278
  0.6959806141881434  0.3279943133232250  0.0622247407851396
  0.8389346736727693  0.7072825193618679  0.1511063317445864
  0.8362139392422719  0.6698272169842646  0.2262444633571036
  0.6205180091256461  0.2581389301582909  0.1066253859894014
  0.3796784313528688  0.7682374085344940  0.0671588327396764
  0.4209015154597844  0.0354648623886868  0.3042507253775814
  0.3101693294564376  0.5484267626556275  0.3148097983043528
  0.2452232686295780  0.1245169823991391  0.2136145601415390
  0.7400543332877761  0.5482699430567858  0.1441234298334313
  0.6310114246436335  0.0598634811562961  0.1432935252814282
  0.8142324148323913  0.9626946844756065  0.2180177861614217
  0.1693740396969426  0.3632897340559435  0.3444802826533447
  0.2416106704124671  0.6959658777867399  0.3125030357320835
  0.0433035452039322  0.7208987320450648  0.1515837692392169
  0.6666534079480408  0.6479105079368246  0.1354808196221391
  0.7080117281688819  0.0240423635358351  0.2005946294624635
  0.6478968133690087  0.8624306962521533  0.2074816791927800
  0.4092425858563056  0.3527854400635456  0.0886538681705625
  0.5203716836147348  0.2641216190083042  0.0606532903251385
  0.9123269862010633  0.8833422593172227  0.2270014424631728
  0.5278880917939454  0.3362725670520445  0.1235548074251010
  0.4038837535983371  0.1582457974094889  0.1168770065191551
  0.7702230481393258  0.7688474658478338  0.2459846215329980
  0.6337703754041262  0.9805708316536531  0.0838345544029543
  0.2103242758166313  0.4742206082832001  0.3213830028915586
  0.0536269543061573  0.6795673145277168  0.2230276207118933
  0.8870390341733007  0.9711566566862111  0.2809104858490766
  0.1842440580347573  0.0304935640894195  0.1801604051241126
  0.3362023515991313  0.0881810943053630  0.2610969170020032
  0.0410642128761105  0.6166624452629744  0.2894985744090782
  0.9182098511188684  0.1103085038319760  0.1590409858353626
  0.4460216279335742  0.1429990201542744  0.2620589490727157
  0.1813590755475687  0.1388202696602217  0.1453014810082863
  0.1318219593738883  0.9881448962618686  0.2447181019744392
  0.3204812158878259  0.8837753528708249  0.3363682423761354
  0.2954429891117780  0.1366948772339074  0.0801631247413470
  0.8640394448283617  0.2724185198835789  0.1087718565591421
  0.8874020480271662  0.7636711364480093  0.0905671432502943
  0.1144258890303276  0.7180698256880548  0.2865825427979026
  0.4754723958677315  0.8387244759914567  0.0942797755517790
  0.4354813920426519  0.0126528497844492  0.0743855734303068
  0.2190439972545869  0.8398800014751442  0.3050271727167810
  0.8082813910905444  0.0605526514882104  0.1675369576863553
  0.9434305470050121  0.6707194280390933  0.1870725687204393
  0.3180959330759032  0.2896294056608607  0.2891709019429778
  0.9163764135996951  0.0514263263623582  0.2276375415679880
  0.7976485068025070  0.5643996092965249  0.3095524626869468
  0.3569103697729348  0.6607870874895601  0.2944307368309821
  0.4949049150366784  0.2862755894876856  0.3304496028074562
  0.6604741901566147  0.1183002913462658  0.3466062828168844
  0.9190596848292008  0.5794914700661751  0.2933534161259676
  0.9709602151506186  0.5499303168934032  0.0990677715404132
  0.5117419883512232  0.9833418612944306  0.2656492541789078
  0.4022682893440869  0.6673725019733207  0.1126984120260986
  0.3805234710268541  0.1424985973324513  0.3283729820592966
  0.4748588073342732  0.3687583587995402  0.1879989602975087
  0.0205138827657379  0.5078641260950970  0.1641539517685117
  0.0811056306647443  0.4925960527527585  0.0965862689574670
  0.2039048463543679  0.5809930516440169  0.1837136002443683
  0.9805169534121788  0.2554031868766566  0.1330579964487128
  0.1943593819553841  0.4882627567679535  0.1310797882222013
  0.3672982065108614  0.8946932651170398  0.0770424273727687
  0.3062410519665670  0.5380296268489646  0.1499901942292825
  0.7403631508287620  0.4030711576805232  0.1168180757815264
  0.1554824355458902  0.6984111923050578  0.1174221767071218
  0.5598584612935531  0.6130207234972092  0.3379064591380138
  0.6124799529769367  0.2926604767306458  0.3022962404298244
  0.4531890412502161  0.2500173325634821  0.2184806266699058
  0.2620478321185684  0.1787218375446899  0.2813013055173641
  0.6843312714555879  0.5954209363599601  0.3345878775615075
  0.5315023206814806  0.3295619808960503  0.2508827478784535
  0.3956527375353879  0.3641492811422328  0.3270959454159008
  0.2990487473773559  0.2117832246724608  0.1408982867988594
  0.5980661593520297  0.3908576715211403  0.1785275114049474
  0.5362898859832973  0.5111364983121002  0.0701561244491216
  0.2371060101230588  0.3898095739177478  0.2197482379332537
  0.6403705724195705  0.3845809097152977  0.2502528599377685
  0.0399792731404544  0.9621584609171885  0.1113067910078325
  0.8525042444312979  0.5847673997869609  0.1717138413730687
  0.6896493518076465  0.5710111387391028  0.0738279757982161
  0.6291234536126001  0.4982040354947038  0.2149571844559341
  0.0712176215182509  0.1760008289216067  0.1160796673244645
  0.9115193570835083  0.2670396141823125  0.3750792511769975
  0.8354280898373423  0.1157452425144723  0.1013421897265539
  0.5003587812376412  0.0798562722305276  0.1232885298707190
  0.6295397351131268  0.9503585865396356  0.2629283415948352
  0.2278790113883626  0.6007270401116980  0.1073569250577778
  0.0664318000668958  0.2290640111822702  0.1868941948751809
  0.7622667865816326  0.9411302173526671  0.1515058884609719
  0.8216072465422114  0.1927825184370371  0.1621767355311273
  0.2189736542014313  0.2547314317459019  0.3329551755746786
  0.0256256619453982  0.1115897730182475  0.3538684535676225
  0.7249079295213380  0.0618526201993734  0.0936064989973921
  0.3039555175339215  0.4139156250959593  0.0797137403214293
  0.7757942510969389  0.7886336774659480  0.3233413324036770
  0.0729433513315759  0.6056212507715346  0.1279107467871189
  0.8564713349313258  0.2158180885918685  0.3149442590880886
  0.1250351651302120  0.3462556544094727  0.2155780903055477
  0.0369017709745934  0.3264199234413199  0.2685727894015106
  0.6573949372057860  0.1630656622822844  0.2722460378947527
  0.2290448876182348  0.5082532699024264  0.2448351381775484
  0.7390683375741380  0.6578097380022302  0.2759868672094055
  0.7418806891977726  0.2504219978648523  0.1167905228068268
  0.0074771943660736  0.5000687832218285  0.3097096161666558
  0.2070259349477426  0.5916396638221829  0.3508722469840626
  0.3220303488103970  0.7839091723580240  0.2859995112587294
  0.0944269144610317  0.2657070344721374  0.3261598334740777
  0.4057586861424211  0.5543462239871948  0.2648511973776952
  0.7374868028185494  0.0176123835528231  0.3555371059365532
  0.4159783138120482  0.5381191344817567  0.1864416085471325
  0.0501364124609929  0.6962066935328662  0.0756641486791439
  0.9953637291642952  0.5409269734785327  0.2361551705808717
  0.5172315886060854  0.4613441915945394  0.1408889213698040
  0.9883539445339237  0.7854780636556725  0.2078428038898710
  0.1707308331746296  0.9529976420949655  0.3127125861337103
  0.5576675749840710  0.8435006953067219  0.1530482231267741
  0.2203805932648993  0.0578090502555026  0.2789378087891342
  0.3387408514199161  0.7307405760534437  0.3568727508287612
  0.2727937063652529  0.5048174940986553  0.3858580682882104
  0.4771805566719455  0.3643719125865085  0.3879036230520255
  0.1472077670879905  0.2752112347033095  0.3963608653663707
  0.5938810323867061  0.2628927757324428  0.3773287886367269
  0.7277209868651612  0.1043409120945126  0.4112395120406418
  0.8999748254207490  0.1334662461818986  0.3672488159076122
  0.8276341081108617  0.7642838569201389  0.3928213447567804
  0.8793139501048057  0.5415598826257796  0.3646685624352854
  0.8623791343289163  0.4057760851038942  0.3719002058633957
  0.7716948624307564  0.3930495092881783  0.3147460651204476
  0.0071894836109087  0.5365605406009946  0.3823515294888040
  0.9899656773001538  0.4128093386805216  0.3665390589660901
  0.5448627711245319  0.8656113846501082  0.3529950043352396
  0.0875524980794912  0.7596173301231547  0.3589165852497618
  0.1541631609908460  0.8769330623083522  0.3708689374484185
  0.0337930445085132  0.9830717861539381  0.3511053202656951
  0.4314840532055854  0.8225657593254264  0.3721175491199383
  0.5208461121760362  0.9927492730230140  0.3451098678908442
  0.6586164825636187  0.4449373610754137  0.0623005778652017
  0.7758317500213433  0.4208202184981963  0.0421469435262913
  0.6869329075485827  0.2039487553334566  0.0523032474700445
  0.1275384243667676  0.2875075430989682  0.0504498006532769
  0.1795559649514422  0.4955465935960623  0.0520189464104914
  0.4357771668541939  0.8516426359808368  0.0201881142452298
  0.2051570291536952  0.6786019917353130  0.0463566838711438
  0.2664964497994606  0.9499750645607685  0.0494833786391525
  0.8982661116836894  0.5806940889555324  0.0389838964545637
  0.9082358147945617  0.4598420767242110  0.0583475054820674
  0.8220274315077943  0.0093181786696624  0.0577009606807112
  0.7818707657014738  0.1228441771445434  0.0338936690259910
  0.1689008829038260  0.1622305000930804  0.0690256648634721
  0.0269954984724977  0.0292210948043852  0.0460044373582027
  0.1320055488390275  0.9668948270918502  0.0559086019668784
  0.9522637729035658  0.2795722639999506  0.0567175159492250
  0.9456417829251222  0.3687326522258479  0.1138239602606900
  0.6126918905623239  0.1025504335003059  0.0693696019699085
  0.3521595479598541  0.3855860240217960  0.1130775068149715
  0.2171999439989377  0.6722659423260682  0.0933943286104860
  0.3152258424974628  0.7187858711813890  0.3110403592790234
  0.3563279642831700  0.7277516292496936  0.1055587604769577
  0.2927224261612604  0.8539259767177816  0.2963953526344295
  0.4437699105845309  0.5727973934523825  0.2250504549168903
  0.3964360591909813  0.1030826073877929  0.2886876376993975
  0.6269229762657679  0.1873527329208581  0.2308633029976824
  0.9171009453970324  0.0405670962783033  0.2748713224730602
  0.0739471187951088  0.7716357330002177  0.3116806518722518
  0.8165327073584495  0.7381511470379408  0.3485693518536165
  0.8146077876130531  0.5306751643342970  0.1470934123842458
  0.4137937872302517  0.8369244323381653  0.0648686585496327
  0.5299826723877974  0.3910393146114376  0.1575054058170693
  0.4686847517209793  0.3568874221896154  0.3407658331771264
  0.6542056063492464  0.6765420834208046  0.1792197945154238
  0.4649616803499447  0.7136209027757562  0.2078079019026265
  0.7708880291720779  0.3986299784890064  0.1601733397824781
  0.8527416249223069  0.7770437806038938  0.1329455723336494
  0.8572944901018451  0.9232833807807328  0.2488289620882812
  0.8670089033333856  0.5369823363522290  0.3173833368384250
  0.6185205140797897  0.1315881737560837  0.3082762619314813
  0.7743524349578086  0.9970077767821498  0.1838254300501591
  0.5929219195775076  0.5627130506768870  0.2283727235888838
  0.6172985704406639  0.5674205877946026  0.3203679144667449
  0.9608558820272102  0.0776260103156107  0.1929596491573107
  0.3289250965548387  0.1479663930027292  0.1234220375622952
  0.2894439766047444  0.9155673200386478  0.2142247630477637
  0.7435845214705618  0.8803333506183987  0.1244915229344726
  0.7662898455011816  0.6941368288951177  0.2380473913466367
  0.9473302242748379  0.8454560693275702  0.1922052344519107
  0.7268332718988211  0.0920240156956390  0.3639224081000397
  0.1601927853240726  0.8794920677775010  0.3230746289025566
  0.0765259196785301  0.0058254251325960  0.0793910804209819
  0.4661424454989800  0.3239142163564176  0.2263068198573385
  0.0432369372483455  0.2601811681793121  0.2914437414769740
  0.4769392059301882  0.1776321573768247  0.2247187573387632
  0.1977860193224149  0.3254524357363562  0.2182673795887561
  0.0903603536062348  0.6563591147003386  0.2621136282738377
  0.1335829280169389  0.1342820493221802  0.1077479956796371
  0.0403068542934266  0.4966177822684192  0.2092856021223536
  0.3837020430378478  0.8184641602863143  0.1779422192133742
  0.4734124823353669  0.9814374304453755  0.3074098158801954
  0.6364403549270199  0.8755863658278917  0.2541003269643727
  0.2635627119162757  0.2792302762891675  0.1417653073814763
  0.6494253880888499  0.0535230322972203  0.0970779600743925
  0.5823336015255527  0.0098438970039308  0.2589309442972849
  0.1527005269973843  0.4662492708857858  0.0928942640829437
  0.5415096106288536  0.5241226170423237  0.1170291368509775
  0.4648357620527034  0.0124493310519554  0.1185520775392240
  0.8075461258430722  0.2610346919135704  0.1397312321002403
  0.6876429956993000  0.2610610216086978  0.0842057857572481
  0.5655659117976322  0.2557110009484522  0.3331499743771102
  0.4753587130484467  0.8474462120180276  0.3367394823256104
  0.0647850539854364  0.1733934726815478  0.2191492359260804
  0.1580400038763721  0.0151485259662308  0.2862377483884659
  0.8444479511616876  0.1213758734081476  0.1487288430968721
  0.9912090548198170  0.5598474728193844  0.2821173469406789
  0.2960965128775362  0.9188844307537321  0.0889220104132943
  0.8528655102605019  0.1426196922507063  0.3290740292576683
  0.2501306683767914  0.5305855650749008  0.3427538108720706
  0.0325636687981692  0.9554518965509813  0.1587024549970904
  0.1582945499801725  0.9678702436651055  0.2020104530650948
  0.2643438005635043  0.1116522143281756  0.2591222132303818
  0.0369212329867915  0.5389270695984898  0.1220371366246776
  0.7911445209133406  0.0753035540846977  0.0718977751359203
  0.3562896828346614  0.3558054968390365  0.2861922788377643
  0.0808209336967852  0.6803065036383734  0.1188259422045590
  0.1839914420592643  0.1055360704067663  0.1882075799022947
  0.2747848663698595  0.4463793547649934  0.2403396969580736
  0.1484492544426648  0.3157480815721501  0.0930069442896053
  0.5405901285064575  0.7722709919617778  0.2772156032028654
  0.2511814731971542  0.2518468669529797  0.2899793517436622
  0.7188949259463316  0.3993558894666077  0.0709114515825905
  0.8682263826582899  0.6576572689341558  0.1834234413217690
  0.4957368439584616  0.8758393921362350  0.1347617622791561
  0.3734472148592360  0.5866487940944810  0.3036921811400341
  0.6468370819346475  0.4242422677590557  0.2089375603614840
  0.8460433397690762  0.3989576899320185  0.3242740302757467
  0.7641046363031032  0.8207006038969487  0.2808216360592622
  0.6274027541006437  0.8241111380184887  0.1682820139796800
  0.6066668945873127  0.3169061896018977  0.2570550285986932
  0.4713152858633603  0.1470245174696396  0.1381974075176602
  0.5454720174668171  0.2659925098236486  0.1056484413776608
  0.4779983254778715  0.6597745808443933  0.1231282876258951
  0.0258479269574464  0.4765756595472232  0.3535636950845204
  0.9080333341002659  0.2689685372020918  0.3267458402223319
  0.0379997768178545  0.0496067569593299  0.3272997961342673
  0.3365311567335697  0.0126498411711930  0.1568219577606124
  0.3581659926571441  0.4950954743398457  0.1717491344027848
  0.1561673007645165  0.2889731564558553  0.3497864251005352
  0.1497825193365001  0.4291856488068017  0.3246286436313048
  0.6781986729742058  0.5756744194949329  0.1215488901834376
  0.2326005878632404  0.5516361349746496  0.1432473105726271
  0.1756744985997489  0.5535324982318475  0.2246988239100121
  0.0058660514554450  0.7145950848303401  0.1932334831487736
  0.7500044505423533  0.6222446120270030  0.3175164216168718
  0.9364368351844895  0.2950532787045522  0.1027798620328741
  0.6484152843321588  0.0678247982273075  0.1888251392919340
  0.0791602481849589  0.3792997726005843  0.2476541521478514
  0.9071531203811819  0.5325623295429319  0.0757599072665131
  0.0536366017276041  0.2398927807603675  0.1405263337118045
  0.7298782941394797  0.5844302523508986  0.0636576742858268
  0.5659533233709740  0.4800070133113090  0.0603397372368121
  0.3211319377391162  0.4105292670465791  0.0534928971257532
  0.4510761410109712  0.3529685208337790  0.1004081649766248
  0.4653879224344376  0.5920592952861194  0.3362902044421620
  0.5580528535557795  0.6162195697067203  0.3663495291499583
  0.5745099214845344  0.4697559437264971  0.3312685177019606
  0.2078570468327891  0.7185949100727947  0.2993929294567357
  0.3071887273108330  0.7491507168358720  0.3738175455114034
  0.2173886917898127  0.6300354791025021  0.3359888478881054
  0.2864775527825026  0.4616440608886296  0.3868910553585683
  0.5191965992275932  0.4021860931425386  0.2913149868966155
  0.4593528061439008  0.3994061750050789  0.4022370041446788
  0.1293352991137170  0.2350855567914253  0.4033745989511984
  0.5760460852529889  0.6920881698926246  0.3146216963483899
  0.5726091244463929  0.2921106229213439  0.3945892546969718
  0.3783054303432566  0.1876592009041408  0.3262008854322001
  0.7052323680327233  0.1405703522883451  0.4208669852719347
  0.9020987087311083  0.1707900824867733  0.3838265333687026
  0.8958447284726215  0.6874252416228522  0.3177818175040295
  0.7939281472602517  0.7873298981894371  0.4050718256649000
  0.9224670781389500  0.5467917641481720  0.3741979911863995
  0.7485588527902097  0.3557087094599730  0.3217006074856540
  0.8490611105341779  0.4454604784711793  0.3834508561161186
  0.0224536981640234  0.5357683162022754  0.4091014934573946
  0.9440982312833333  0.4137176903621651  0.3706798956175967
  0.9652691371478959  0.7647931176344507  0.3150554327873622
  0.0895690486553473  0.7165758867985028  0.3678036885981419
  0.1338743617061360  0.8385490617025316  0.3798233854538207
  0.9814067729338404  0.1190635299819013  0.3607668188249900
  0.0658887256048563  0.9730077458379308  0.3701679533229739
  0.5503451989142111  0.9107786758405747  0.3567198760171927
  0.4001989234453548  0.7901923820795789  0.3662066231447944
  0.3619125222596908  0.9029933728686105  0.3348845153590679
  0.7200832577970083  0.9877775347566797  0.3738360203443882
  0.5513778598670235  0.0259390664216399  0.3409401593636470
  0.9338936631631956  0.3003371018169304  0.3883583219257436
  0.8185885137774215  0.4253198559438453  0.0516072188334750
  0.6702353186574981  0.4894903713050083  0.0606284711665524
  0.7258620429823893  0.1834473303449896  0.0435030366313789
  0.3113244857394919  0.1016115837679898  0.0649967350609382
  0.1398561329841046  0.2433637683163137  0.0479067889824453
  0.2239311370757468  0.4887984274225980  0.0477763305153666
  0.2517996742605570  0.8221646511228078  0.0972838746540017
  0.4773570915444660  0.2762770906713860  0.0556095335299743
  0.4564897010000557  0.8191825612860122  0.0052899155657033
  0.1626363861791005  0.6727296678452988  0.0371672434504285
  0.4147291105684056  0.9742558727536412  0.0659518307866626
  0.0134806019309135  0.7230322421347957  0.0764810456161215
  0.8808108167093182  0.7958200632910433  0.0709508631300358
  0.7021722366511465  0.9298102854517897  0.0746315662586758
  0.5242709408337817  0.7359497000846292  0.0891761771686580
  0.2218067290408099  0.9606261069450304  0.0512613073944475
  0.9222929833336581  0.6191075733334576  0.0397051967196361
  0.9331453210930297  0.4525127017098635  0.0350086134553528
  0.5953327834165051  0.9629472240847512  0.0947599191286815
  0.7982929593761189  0.9712537132767152  0.0646135463887658
  0.7787472985546191  0.1031702865565655  0.0083875000830907
  0.2148234974567310  0.1562828426420201  0.0691712634014164
  0.9844532213952586  0.0384439471839468  0.0540180204104778
  0.9957720543515242  0.2828575826724401  0.0487009156814650
  0.9317847195878149  0.3995615399255118  0.0944670561023565
  0.1169156413232414  0.9372967150435891  0.0365429466543749
  0.6350980167665529  0.1412502138332381  0.0618600424938941
  0.3472752046446364  0.6174009317157582  0.5440836454837663
  0.4051284357065930  0.3667678181245169  0.4796299860809759
  0.6550730190505141  0.4772863975074203  0.3978139393122806
  0.7224283387246733  0.5828339295925768  0.5314342685104841
  0.5252657110348137  0.5999278283090878  0.4681043232265234
  0.3994506522156583  0.5767605408413387  0.4663885736126517
  0.4791502606909072  0.4815952985275452  0.4753631464916941
  0.6276625383350349  0.5253408502051148  0.4789918040210814
  0.5490333349636279  0.5151320553836339  0.4269611651042456
  0.4503277876604423  0.6456879441284122  0.4264533983038113
  0.4670045219346862  0.5625329923091311  0.5200667247951466
  0.6132001288839001  0.6294978043373652  0.5002331990135330
  0.3207173573602026  0.6097336864370175  0.5084821415972608
  0.3927932220855664  0.4835865918557725  0.4349319970680235
  0.4643385037079095  0.3755158514879077  0.4926110268237845
  0.5799274523959701  0.4529873977979640  0.5147606063700626
  0.6942903578123101  0.4909440306321183  0.4278386364321707
  0.7273063183745854  0.5316823203564061  0.5083354275729520
 
  0.00000000E+00  0.00000000E+00  0.00000000E+00
  0.00000000E+00  0.00000000E+00  0.00000000E+00
  0.00000000E+00  0.00000000E+00  0.00000000E+00
  0.00000000E+00  0.00000000E+00  0.00000000E+00
  0.00000000E+00  0.00000000E+00  0.00000000E+00
  0.00000000E+00  0.00000000E+00  0.00000000E+00
  0.00000000E+00  0.00000000E+00  0.00000000E+00
  0.00000000E+00  0.00000000E+00  0.00000000E+00
  0.00000000E+00  0.00000000E+00  0.00000000E+00
  0.00000000E+00  0.00000000E+00  0.00000000E+00
  0.00000000E+00  0.00000000E+00  0.00000000E+00
  0.00000000E+00  0.00000000E+00  0.00000000E+00
  0.00000000E+00  0.00000000E+00  0.00000000E+00
  0.00000000E+00  0.00000000E+00  0.00000000E+00
  0.00000000E+00  0.00000000E+00  0.00000000E+00
  0.00000000E+00  0.00000000E+00  0.00000000E+00
  0.00000000E+00  0.00000000E+00  0.00000000E+00
  0.00000000E+00  0.00000000E+00  0.00000000E+00
  0.00000000E+00  0.00000000E+00  0.00000000E+00
  0.00000000E+00  0.00000000E+00  0.00000000E+00
  0.00000000E+00  0.00000000E+00  0.00000000E+00
  0.00000000E+00  0.00000000E+00  0.00000000E+00
  0.00000000E+00  0.00000000E+00  0.00000000E+00
  0.00000000E+00  0.00000000E+00  0.00000000E+00
  0.00000000E+00  0.00000000E+00  0.00000000E+00
  0.00000000E+00  0.00000000E+00  0.00000000E+00
  0.00000000E+00  0.00000000E+00  0.00000000E+00
  0.00000000E+00  0.00000000E+00  0.00000000E+00
  0.00000000E+00  0.00000000E+00  0.00000000E+00
  0.00000000E+00  0.00000000E+00  0.00000000E+00
  0.00000000E+00  0.00000000E+00  0.00000000E+00
  0.00000000E+00  0.00000000E+00  0.00000000E+00
  0.00000000E+00  0.00000000E+00  0.00000000E+00
  0.00000000E+00  0.00000000E+00  0.00000000E+00
  0.00000000E+00  0.00000000E+00  0.00000000E+00
  0.00000000E+00  0.00000000E+00  0.00000000E+00
  0.00000000E+00  0.00000000E+00  0.00000000E+00
  0.00000000E+00  0.00000000E+00  0.00000000E+00
  0.00000000E+00  0.00000000E+00  0.00000000E+00
  0.00000000E+00  0.00000000E+00  0.00000000E+00
  0.00000000E+00  0.00000000E+00  0.00000000E+00
  0.00000000E+00  0.00000000E+00  0.00000000E+00
  0.00000000E+00  0.00000000E+00  0.00000000E+00
  0.00000000E+00  0.00000000E+00  0.00000000E+00
  0.00000000E+00  0.00000000E+00  0.00000000E+00
  0.00000000E+00  0.00000000E+00  0.00000000E+00
  0.00000000E+00  0.00000000E+00  0.00000000E+00
  0.00000000E+00  0.00000000E+00  0.00000000E+00
  0.00000000E+00  0.00000000E+00  0.00000000E+00
  0.00000000E+00  0.00000000E+00  0.00000000E+00
  0.00000000E+00  0.00000000E+00  0.00000000E+00
  0.00000000E+00  0.00000000E+00  0.00000000E+00
  0.00000000E+00  0.00000000E+00  0.00000000E+00
  0.00000000E+00  0.00000000E+00  0.00000000E+00
  0.00000000E+00  0.00000000E+00  0.00000000E+00
  0.00000000E+00  0.00000000E+00  0.00000000E+00
  0.00000000E+00  0.00000000E+00  0.00000000E+00
  0.00000000E+00  0.00000000E+00  0.00000000E+00
  0.00000000E+00  0.00000000E+00  0.00000000E+00
  0.00000000E+00  0.00000000E+00  0.00000000E+00
  0.00000000E+00  0.00000000E+00  0.00000000E+00
  0.00000000E+00  0.00000000E+00  0.00000000E+00
  0.00000000E+00  0.00000000E+00  0.00000000E+00
  0.00000000E+00  0.00000000E+00  0.00000000E+00
  0.00000000E+00  0.00000000E+00  0.00000000E+00
  0.00000000E+00  0.00000000E+00  0.00000000E+00
  0.00000000E+00  0.00000000E+00  0.00000000E+00
  0.00000000E+00  0.00000000E+00  0.00000000E+00
  0.00000000E+00  0.00000000E+00  0.00000000E+00
  0.00000000E+00  0.00000000E+00  0.00000000E+00
  0.00000000E+00  0.00000000E+00  0.00000000E+00
  0.00000000E+00  0.00000000E+00  0.00000000E+00
  0.00000000E+00  0.00000000E+00  0.00000000E+00
  0.00000000E+00  0.00000000E+00  0.00000000E+00
  0.00000000E+00  0.00000000E+00  0.00000000E+00
  0.00000000E+00  0.00000000E+00  0.00000000E+00
  0.00000000E+00  0.00000000E+00  0.00000000E+00
  0.00000000E+00  0.00000000E+00  0.00000000E+00
  0.00000000E+00  0.00000000E+00  0.00000000E+00
  0.00000000E+00  0.00000000E+00  0.00000000E+00
  0.00000000E+00  0.00000000E+00  0.00000000E+00
  0.00000000E+00  0.00000000E+00  0.00000000E+00