 H  S  
1.0
       21.3948993683         0.0000000000         0.0000000000
        0.0000000000        21.3948993683         0.0000000000
        0.0000000000         0.0000000000        34.1699981689
    H    S
    2    1
Direct
     0.563916326         0.493699759         0.508386374
     0.473690391         0.493886113         0.508373082
     0.518915296         0.537795961         0.507826924
