 H                                      
   1.00000000000000     
    21.3948993682999991    0.0000000000000000    0.0000000000000000
     0.0000000000000000   21.3948993682999991    0.0000000000000000
     0.0000000000000000    0.0000000000000000   34.1699981689000012
   H 
     2
Direct
  0.5370569071179075  0.5777888235267555  0.3927146638866581
  0.5370564608820915  0.4302516044732456  0.3927144561133453
 
  0.00000000E+00  0.00000000E+00  0.00000000E+00
  0.00000000E+00  0.00000000E+00  0.00000000E+00
