 SiO2-Mo5S12
1.0
       21.3948993683         0.0000000000         0.0000000000
        0.0000000000        21.3948993683         0.0000000000
        0.0000000000         0.0000000000        34.1699981689
    O   Si    H   Mo    S
  236  102   64    5   12
Cartesian
6.07461942 15.22773739 3.43209225 F F F
13.09779590 13.37135557 6.90644940 F F F
3.21988452 8.36735618 3.12960348 F F F
8.17153423 9.41344706 4.78241940 F F F
14.46510838 18.15853689 4.60054140 F F F
2.21875302 9.98251129 12.00801822 T T T
0.08907767 16.22743648 10.32187669 T T T
14.07718943 3.04861722 6.70476866 F F F
4.58510433 19.62174069 7.01852289 F F F
18.09548543 11.37434080 3.50254953 F F F
8.83215907 16.46883726 7.13760309 T T T
11.08609297 11.83238111 7.70331173 T T T
2.48304396 10.98175959 7.29468642 T T T
13.07262403 10.63056678 11.49011835 T T T
9.30242635 13.85979112 7.48550244 T T T
2.64817722 8.93199151 9.53332508 T T T
11.13084353 15.69671540 8.10035591 T T T
6.80409040 21.03448087 6.80999683 F F F
6.91736319 18.34266685 6.56172933 F F F
17.44430689 18.72237839 9.34780497 T T T
20.83756795 5.30209204 10.50500674 T T T
21.12530951 0.91514844 9.96690494 T T T
0.06069940 0.44708401 5.95732307 F F F
2.09114101 6.33659868 4.25664415 F F F
12.64315281 15.62395430 10.27683324 T T T
9.14277007 12.47422748 11.56568364 T T T
17.14062361 6.99888197 5.64782807 F F F
1.35749475 4.37959728 8.92536784 T T T
11.22054869 14.73651034 3.00732745 F F F
3.29133692 13.14519003 8.52831195 T T T
11.81871697 3.79590930 7.92824588 T T T
15.36536462 8.83899433 6.56544833 F F F
10.93981582 20.34115835 4.26442049 F F F
5.43428230 18.48115359 3.70128929 F F F
13.42804871 16.00882161 5.96447185 F F F
15.85999909 19.36710551 2.67949613 F F F
14.86849466 18.20907064 9.55475310 T T T
15.43503072 14.60095282 6.88995781 F F F
4.77664086 6.09624678 6.15643554 F F F
2.43778825 1.30938435 3.46496037 F F F
12.09132658 3.87533160 10.97704442 T T T
16.67742369 14.37703169 11.91327952 T T T
4.37406882 6.03520572 8.76441429 T T T
13.17872489 11.48617129 4.44907730 F F F
7.05440126 9.92558223 7.13635409 T T T
6.75896684 7.17030931 4.72582689 F F F
6.47720932 20.80464775 4.18508376 F F F
10.69381781 12.55923595 4.35907136 F F F
18.61868135 9.93598369 10.34211732 T T T
12.67673359 1.34700196 10.01858087 T T T
9.85949634 2.97135358 6.32498035 F F F
10.25607095 16.95036869 10.33718548 T T T
10.97241721 8.78272266 10.87523025 T T T
2.13022251 18.02480933 10.40849816 T T T
6.67710119 8.91235990 9.50010666 T T T
16.71365950 2.76337768 11.61785653 T T T
10.52202894 15.04170988 5.54133971 F F F
21.17149216 19.16458666 5.72576204 F F F
18.95436666 15.74894139 11.53742456 T T T
13.10509153 12.30563627 9.32161313 T T T
16.94675850 17.56257094 4.30581394 F F F
18.94917517 7.23004134 10.62919599 T T T
17.57032565 9.81761188 5.60267159 F F F
13.66122932 5.61626986 7.76158552 T T T
19.20997866 17.47246026 5.51667742 F F F
18.71892122 2.03477816 10.07072626 T T T
9.49542429 19.51617288 10.80987692 T T T
2.28928326 1.27837979 10.50992535 T T T
0.72663278 9.09903332 7.59735952 T T T
12.27091926 17.92239390 9.03135722 T T T
0.06460927 2.82105338 7.21995668 T T T
4.65283336 6.12491534 3.51990341 F F F
9.37364506 18.61369645 5.64957352 F F F
8.82138716 0.15600667 5.20886371 F F F
2.66508843 2.74079836 7.30760871 T T T
2.16061074 20.11037645 6.05000013 F F F
6.45324637 19.33556512 8.89800287 T T T
7.74982281 16.64411964 4.79798124 F F F
12.62053141 0.90775853 7.38473106 T T T
6.79667874 1.85099953 5.16099537 F F F
8.75724601 7.52058841 8.55417182 T T T
11.04700573 4.45677325 4.50003785 F F F
14.89465228 7.01884578 2.12254831 F F F
17.93188803 15.14971849 5.16567671 F F F
17.91407427 14.32763673 7.71145187 T T T
13.27653034 5.52499617 3.63671041 F F F
8.16015721 16.45545750 2.26626051 F F F
9.00889012 0.76024600 10.38227475 T T T
6.72958350 11.73254931 10.74878537 T T T
5.24726297 2.67219994 7.29371848 T T T
15.85550898 11.73567747 4.91015554 F F F
13.47112616 1.25090269 4.88595253 F F F
17.41361835 20.59291022 7.43710710 T T T
3.57677636 7.77094772 11.74941961 T T T
5.19339033 14.86923939 10.73780252 T T T
0.96381190 15.45281643 5.18522639 F F F
14.31087886 13.88375152 4.62562273 F F F
15.12855213 0.48468250 6.84257777 F F F
13.87674283 18.45427163 7.07694892 F F F
8.79847501 7.56767712 2.97107843 F F F
11.11298258 5.62125029 2.07132834 F F F
19.51445386 18.89592517 7.74473343 T T T
11.29343349 7.19558448 4.19241864 F F F
8.65465332 3.39040836 3.99791011 F F F
16.52214975 16.43924160 8.45562196 T T T
13.55449722 20.96844918 2.84840830 F F F
4.60705241 10.08301514 10.96510839 T T T
1.13720286 14.53817299 7.61882217 T T T
18.97537616 20.78708648 9.57991438 T T T
3.94805668 0.66770256 6.14549699 F F F
7.20030604 1.88308333 8.90353961 T T T
0.93833557 13.14964825 9.86872423 T T T
19.62404886 2.34756168 5.42197742 F F F
9.54388706 3.07045308 8.95104644 T T T
3.88650904 2.98068894 4.94620547 F F F
2.81316127 21.16602522 8.35180471 T T T
6.85640885 18.90289816 11.48579343 T T T
6.34895826 2.93577324 2.72717963 F F F
18.49029193 5.80608163 3.69490630 F F F
19.07726492 16.40561620 3.11449683 F F F
2.46712392 15.35508622 9.77532466 T T T
10.18283355 17.96442439 3.22011655 F F F
9.31689071 0.27086946 2.53241906 F F F
4.68075049 17.97717292 10.41430782 T T T
17.26795586 1.29376112 5.72001195 F F F
20.19944017 14.35734716 6.34980149 F F F
6.78587941 6.22154822 9.84942455 T T T
19.61486844 1.09789883 7.76408505 T T T
17.12000815 12.09397015 10.58172379 T T T
7.66250872 14.15440365 10.03368599 T T T
10.63177187 6.12930471 11.31893654 T T T
14.14856180 2.50131601 11.83317342 T T T
19.70937359 12.39386215 9.97267998 T T T
20.80253978 11.80633698 3.36857398 F F F
10.94730783 21.03053529 9.07499332 T T T
8.64683932 14.30103914 3.81420953 F F F
8.13402955 3.04125051 11.21279746 T T T
10.18925691 7.89094992 6.40644288 F F F
0.48714067 10.85567961 5.55318612 F F F
1.77803646 10.60765335 3.22447303 F F F
4.44424757 12.41117092 6.23821682 F F F
20.98131886 5.44062787 4.50448496 F F F
4.17584942 10.47403801 4.41189191 F F F
7.86328688 19.15413610 2.62516791 F F F
6.60228887 11.49622397 5.01481547 F F F
15.88579710 8.63547888 3.96206945 F F F
3.37416377 14.96651307 4.03245544 F F F
12.03648891 13.15745142 11.51080705 T T T
13.12799858 6.26153067 10.30854248 T T T
9.70640944 5.34025473 7.43069305 T T T
5.62190003 3.82330295 9.61073867 T T T
14.68499339 12.70391905 11.40725763 T T T
11.40012606 7.02892907 8.54426841 T T T
8.47892844 7.75601472 11.14976902 T T T
6.40595299 4.52858750 4.80322877 F F F
12.82648320 8.34118771 6.05288052 F F F
11.47851733 10.99193341 2.39176673 F F F
5.08107079 8.32827277 7.52965229 T T T
13.72775708 8.20789310 8.50619808 T T T
0.87173377 20.58403968 3.78337327 F F F
18.26373106 12.51787879 5.83327232 F F F
14.77616251 12.22743501 2.51399719 F F F
13.46112704 10.64516248 7.32171738 T T T
1.52931120 3.74054751 3.92084937 F F F
19.52048062 5.70727448 12.81108125 T T T
17.84882558 2.48596138 3.45716137 F F F
10.71090597 1.71309956 4.19056474 F F F
13.46903478 20.32837156 8.98043079 T T T
4.90323922 12.87624799 3.61973307 F F F
1.42650348 4.89761511 6.33352986 F F F
16.31324707 20.12218896 5.16119395 F F F
17.57440130 4.12393459 5.54024346 F F F
4.67501449 5.45951410 11.34722719 T T T
0.54386366 2.38725928 12.09062333 T T T
15.49876826 1.31624368 3.20380240 F F F
6.51739900 8.87123420 2.69169590 F F F
16.57412580 16.93005037 11.09695763 T T T
1.58562512 12.99477346 4.35979082 F F F
18.32710260 4.62336873 10.76640173 T T T
2.69044888 7.39461811 7.30878694 T T T
0.83253016 7.01384558 9.16526556 T T T
14.08611735 3.46773895 9.28771750 T T T
4.91911685 10.87751292 8.35990921 T T T
15.83959787 14.04837421 9.41031406 T T T
15.87266218 5.35939346 3.98762838 F F F
0.17723401 10.65232484 10.50020321 T T T
4.54775237 12.54521219 12.05169301 T T T
6.87794439 16.76440622 9.76258414 T T T
2.00949311 5.65897112 11.12755076 T T T
8.70072949 11.87873975 8.99792902 T T T
15.80906236 0.36125557 12.16006430 T T T
8.91362175 11.49455851 6.32860565 F F F
1.14970001 14.96405314 2.57941162 F F F
21.32710020 11.58024030 8.00518899 T T T
11.10113564 9.87525762 4.79186506 F F F
21.14208268 16.80755636 7.10378537 T T T
3.64967232 20.40058942 10.67621503 T T T
11.93392811 18.05741328 5.23535800 F F F
4.71687983 1.24446203 9.52699403 T T T
7.28643352 15.64638441 12.18447505 T T T
6.06905812 10.61460210 13.10900020 T T T
10.16801531 7.85508903 13.24217940 T T T
3.13971398 5.88509139 13.52202476 T T T
12.77840428 5.61586242 12.87325632 T T T
15.59089764 2.23193306 14.04825266 T T T
19.25608097 2.85542385 12.54642145 T T T
17.38970768 16.37064542 13.56883912 T T T
18.89821677 11.62231287 12.43664790 T T T
18.57450082 8.75356504 12.72060127 T T T
16.53865385 8.45957100 10.87163142 T T T
0.20274929 11.49148009 12.97130566 T T T
21.30183397 8.81927282 12.47840922 T T T
11.66592464 18.51093544 12.03841277 T T T
2.04791452 16.22490642 12.27828197 T T T
3.33011428 18.80436327 12.67873404 T T T
0.72340062 21.03294421 11.99632150 T T T
9.24514405 17.59359869 12.70708579 T T T
11.13971279 21.24150258 11.79009334 T T T
14.09628353 9.51919086 2.12789017 F F F
16.59876972 9.00372669 1.40747643 F F F
14.69621801 4.36293091 1.78437111 F F F
2.76279266 6.19421737 1.65219842 F F F
3.88380458 10.50783366 1.68994555 F F F
9.34415141 18.26271469 0.68080584 F F F
4.37194970 14.57610869 1.57583487 F F F
5.70073699 20.32555329 1.68897647 F F F
19.17435113 12.56006103 1.42166096 F F F
19.50664304 9.88932984 1.95997267 F F F
17.58548182 0.20047244 1.97202835 F F F
16.70334285 2.61539538 1.15347399 F F F
3.64150763 3.46420559 2.33414163 F F F
0.58933748 0.62205994 1.55233796 F F F
2.84041847 20.67836246 1.88569851 F F F
20.37265921 5.98145455 1.90640389 F F F
20.23173550 7.87540480 3.87094663 F F F
13.10546517 2.19024800 2.36578543 F F F
7.56665629 8.24760457 3.80684638 F F F
4.67449228 14.41625156 3.17339487 F F F
6.76115387 15.37478478 10.63012981 T T T
7.65939970 15.59173420 3.57876427 F F F
6.26061952 18.26473084 10.12114861 T T T
9.50760726 12.25804448 7.63438096 T T T
8.48369208 2.20616501 9.85378307 T T T
13.43023829 3.98872074 7.87497878 T T T
19.62623207 0.87377693 9.37825859 T T T
1.64778009 16.48611415 10.68814596 T T T
17.38006946 15.85479868 12.02181272 T T T
17.44703717 11.35351365 5.00994625 F F F
8.87342569 17.93263660 2.20474533 F F F
11.35970492 8.36516278 5.35344379 F F F
10.03916617 7.63458936 11.62746156 T T T
14.01949013 14.48952531 6.12022726 F F F
9.95386249 15.28038293 7.06556178 F F F
16.51953297 8.52916506 5.45076196 F F F
18.26233340 16.63640574 4.52946090 F F F
18.33819970 19.75617217 8.49062045 T T T
18.60485780 11.50812191 10.82042596 T T T
13.25488832 2.80083676 10.52289296 T T T
16.55474860 21.31810724 6.26719994 F F F
12.70089292 12.03725533 7.77721763 T T T
13.23721611 12.13474580 10.92141527 T T T
20.55406527 1.65996130 6.57010319 F F F
7.05208479 3.16450105 4.21135757 F F F
6.19528793 19.59282472 7.31295706 T T T
15.91284994 18.82267055 4.23473598 F F F
16.42551369 14.85313062 8.13496284 T T T
20.27837596 18.09677724 6.55510602 F F F
15.57111109 1.95436628 12.43219162 T T T
3.43476168 18.83011665 11.04392832 T T T
1.65406429 0.11818534 2.68786056 F F F
9.99922771 6.91849687 7.70486573 T T T
0.92755943 5.58169313 9.92619659 T T T
10.21820667 3.79530516 7.67140443 T T T
4.24659247 6.95303917 7.42148619 T T T
1.95997652 14.03656298 8.92918256 T T T
2.87900486 2.86323466 3.65109403 F F F
0.90792240 10.63342458 7.09899049 T T T
8.21732219 17.52742418 6.06492856 F F F
10.12760629 20.99536557 10.50117166 T T T
13.61980203 18.73003235 8.66877843 T T T
5.65442044 5.97312854 4.79049131 F F F
13.88354366 1.13229799 3.30875536 F F F
12.45535145 0.20164026 8.84189204 T T T
3.28768624 9.97764308 3.11846558 F F F
11.60709676 11.23631825 3.99808832 F F F
9.94916898 0.27130617 4.03963655 F F F
17.28419854 5.57809314 4.76072559 F F F
14.71346302 5.58503361 2.87233432 F F F
12.14237171 5.46947305 11.37373472 T T T
10.17335345 18.12516781 11.49244425 T T T
1.38002737 3.72036563 7.44910525 T T T
3.38027183 0.33549881 9.77335722 T T T
18.04743201 2.59194810 5.07619420 F F F
21.24408493 11.95996076 9.58357940 T T T
6.33749963 19.66299073 3.03485026 F F F
18.25535531 3.05293613 11.23707074 T T T
5.48872401 11.26150542 11.71443130 T T T
0.70825824 20.44843115 5.40283202 F F F
3.39060028 20.72737358 6.89670486 F F F
5.66314305 2.39034646 8.84539108 T T T
0.83041782 11.56428328 4.13346587 F F F
16.91196625 1.60483702 2.45554825 F F F
7.64332791 7.61262725 9.74646781 T T T
1.77353472 14.59473988 4.06297677 F F F
3.94134862 2.27298209 6.41502447 F F F
5.89876574 9.55547895 8.18784704 T T T
3.19071543 6.75462339 3.13068445 F F F
11.56566436 16.51873978 9.45152140 T T T
5.36907313 5.38973705 9.88029875 T T T
15.38988994 8.54523366 2.40648921 F F F
18.58766890 14.07904489 6.24268175 F F F
10.61486162 18.75214748 4.60535766 F F F
8.05921851 12.57584334 10.34681902 T T T
13.85520665 9.06670738 7.10201753 T T T
18.14492375 8.56748397 11.11395381 T T T
16.35274366 17.56993543 9.61810334 T T T
13.42879472 17.63693247 5.74008354 F F F
13.00877427 6.76389243 8.75682864 T T T
10.09807184 3.14397423 4.72058547 F F F
11.66970316 5.68396956 3.59975008 F F F
10.26230494 14.13404069 4.18838320 F F F
0.62035156 10.20029853 12.00110060 T T T
19.43158779 5.76080249 11.15770396 T T T
0.81234669 1.06176105 11.18257705 T T T
7.20483822 0.27241453 5.35356854 F F F
7.68417051 10.57781603 5.80706011 F F F
3.32523778 6.17746333 11.92899360 T T T
3.26185379 9.18916695 11.03433449 T T T
14.53534961 12.33660663 4.14517684 F F F
5.02293536 11.80800116 4.82867671 F F F
3.80523669 11.85382802 7.63533922 T T T
0.13425438 15.29771465 6.59025217 F F F
16.07940716 13.31329028 10.83603109 T T T
20.03507380 6.30013013 3.48334837 F F F
13.85723938 1.42645231 6.43775292 F F F
1.73911946 8.12288081 8.41727820 T T T
19.43012637 11.43176464 2.58745808 F F F
1.15279660 5.11043659 4.74775951 F F F
15.65158227 12.47041835 2.16940798 F F F
12.08460864 10.31004912 2.03872233 F F F
6.99037806 9.36574051 2.00073907 F F F
9.68266774 7.56534407 3.39767091 F F F
10.06842262 12.74282776 11.39977584 T T T
12.04903340 13.29638448 12.47385824 T T T
12.29096086 10.06266876 11.30430597 T T T
4.46540341 15.30717052 10.25444187 T T T
6.59137413 15.91268034 12.80874516 T T T
4.73932939 13.37903886 11.55536373 T T T
6.02122086 9.64945615 13.17889841 T T T
11.13054002 8.58269625 9.93131174 T T T
9.75869345 8.63988865 13.63870982 T T T
2.81846051 5.00369971 13.76833296 T T T
12.34708779 14.78817395 10.69897810 T T T
12.35960805 6.26553746 13.46157375 T T T
8.05332947 4.00480369 11.13838697 T T T
15.08844088 2.99757975 14.36799883 T T T
19.31164170 3.66346782 13.09996544 T T T
19.27450174 14.86888488 11.27726483 T T T
16.56687609 16.73720035 13.92613575 T T T
19.83476493 11.71621610 12.73790397 T T T
16.05115942 7.64926413 11.08448595 T T T
18.40922776 9.66507651 13.04610109 T T T
0.59363817 11.52492569 13.85895042 T T T
20.32031845 8.81701438 12.62848379 T T T
20.72735828 16.53541348 10.85620756 T T T
2.07172922 15.30360752 12.58302791 T T T
2.95347542 17.96646476 13.01301810 T T T
20.99264550 2.54138470 12.32837947 T T T
1.41534118 20.81603815 12.64215304 T T T
11.78247478 19.47557321 12.17472134 T T T
8.55712778 16.91482788 12.51338735 T T T
7.74463005 19.31121832 11.43449022 T T T
15.46329632 21.12116627 12.80428379 T T T
11.79380142 0.55539163 11.64616856 T T T
20.08695165 6.35922263 13.25531096 T T T
17.51597384 9.07515071 1.72573059 F F F
14.33930513 10.47396468 2.07712146 F F F
15.52528423 3.91702446 1.48099281 F F F
6.70135170 2.19968203 2.19672000 F F F
3.01734558 5.25084319 1.54593562 F F F
4.65255695 10.00460538 1.37776837 F F F
5.40814635 17.58696747 3.32723655 F F F
10.20744113 5.93109423 1.89833274 F F F
9.80539895 17.58002636 0.17175604 F F F
3.44004307 14.55339675 1.30376712 F F F
8.86648841 20.84592457 2.24889696 F F F
0.37780765 15.55571135 2.59811328 F F F
18.58031462 15.98404761 2.39593762 F F F
15.02116201 19.87634526 2.53301632 F F F
11.29368343 15.70614959 2.98233496 F F F
4.74282895 20.54746848 1.74627036 F F F
19.95064685 13.08084292 1.16204706 F F F
20.08497631 9.74179658 1.19363015 F F F
12.73271004 20.59052808 3.22225508 F F F
17.09227051 20.76991034 2.19695931 F F F
16.64469095 2.19068174 0.28355678 F F F
4.62444535 3.34205590 2.34668688 F F F
21.06700575 0.78659786 1.82447635 F F F
21.30326223 6.04780632 1.63233687 F F F
19.95859156 8.54272081 3.20773169 F F F
2.51404541 20.05100404 1.22024219 F F F
13.58956492 3.01594697 2.11071463 F F F
11.86859652 9.04454315 15.66565893 T T T
9.01427289 9.44825461 15.38732785 T T T
10.65991887 11.15494293 16.78961988 T T T
13.88510455 11.69902465 15.57066769 T T T
7.15352211 12.16723114 15.59869051 T T T
12.00707688 9.48190680 17.87367697 T T T
10.14973354 7.43390493 15.46584024 T T T
10.73033418 10.79492613 14.46327420 T T T
13.95810922 9.41375248 14.82723590 T T T
7.15115081 10.10436066 14.27241185 T T T
8.63658643 9.96822100 17.52905466 T T T
9.08855981 13.11817672 16.42247585 T T T
12.27338811 12.87213280 16.84188646 T T T
15.66133272 11.87071852 16.70676018 T T T
14.12641351 12.85894432 13.81665345 T T T
5.70287428 11.95751614 17.13987771 T T T
6.43302624 13.61144286 14.22888675 T T T
