 O Si  H Mo  C  O                       
   1.00000000000000     
    21.3948993682999991    0.0000000000000000    0.0000000000000000
     0.0000000000000000   21.3948993682999991    0.0000000000000000
     0.0000000000000000    0.0000000000000000   34.1699981689000012
   O    Si   H    Mo   C 
   242   102    64     1     6
Selective dynamics
Direct
  0.2839188850452530  0.7117599899102345  0.1004409460053424   F   F   F
  0.6121673671771291  0.6249888453750145  0.2021203359459989   F   F   F
  0.1504951293792658  0.3910920511876341  0.0915944811723861   F   F   F
  0.3819273480203620  0.4399943838853559  0.1399718425827459   F   F   F
  0.6761039368488753  0.8487280585371266  0.1346328664092269   F   F   F
  0.1037011277096838  0.4665803824782770  0.3514207873725397   F   F   F
  0.0041521789850449  0.7584675266772294  0.3020780000579961   F   F   F
  0.6579676177887350  0.1424957961668838  0.1962160317112591   F   F   F
  0.2143131836782288  0.9171233756826496  0.2053982909188576   F   F   F
  0.8457881444328734  0.5316239446353279  0.1024998358590139   F   F   F
  0.4128171822503788  0.7697602853654644  0.2088966207485683   F   F   F
  0.5181735745258464  0.5530351039338939  0.2254328962816174   F   F   F
  0.1160578592079844  0.5133002309859762  0.2134871842175627   F   F   F
  0.6110388076374562  0.4968623706320585  0.3362542954043874   F   F   F
  0.4347966079830101  0.6478065460539995  0.2190658526303366   F   F   F
  0.1237767408334207  0.4174879906813800  0.2789990781102674   F   F   F
  0.5202626672110711  0.7336663624496964  0.2370558222622421   F   F   F
  0.3180221627054962  0.9831542200125014  0.1992980184225743   F   F   F
  0.3233215522226942  0.8573326520649616  0.1920402842412656   F   F   F
  0.8153348311346704  0.8750887042511764  0.2735521313574765   F   F   F
  0.9739542916912924  0.2478294157771330  0.3074381038834204   F   F   F
  0.9874028763343858  0.0427686414059281  0.2916806074737934   F   F   F
  0.0028401167299847  0.0208868002641296  0.1743562312803704   F   F   F
  0.0977541629557095  0.2961440609154309  0.1245770899557570   F   F   F
  0.5909491873672010  0.7302679942674573  0.3007576507349086   F   F   F
  0.4273304367293562  0.5830553668448886  0.3384711966629723   F   F   F
  0.8011512629679416  0.3271334214822730  0.1652852888963423   F   F   F
  0.0634584992770968  0.2047033639230733  0.2612076674830845   F   F   F
  0.5244474142356950  0.6887910167248421  0.0880130145836944   F   F   F
  0.1538375364611326  0.6144089643236157  0.2495845780755559   F   F   F
  0.5524070308475615  0.1774328679208281  0.2320157157060478   F   F   F
  0.7181703964115655  0.4131455412699481  0.1921369188903341   F   F   F
  0.5113293033737563  0.9507473804518867  0.1248009639167265   F   F   F
  0.2540062474474567  0.8638107665360408  0.1083195865650595   F   F   F
  0.6276269500004616  0.7482508704253519  0.1745515046935111   F   F   F
  0.7413043208947698  0.9052146542539745  0.0784133784517209   F   F   F
  0.6949549761617817  0.8510963063525026  0.2796280166442315   F   F   F
  0.7214387494639141  0.6824465498298977  0.2016385764192847   F   F   F
  0.2232608969721781  0.2849364218164965  0.1801782704735047   F   F   F
  0.1139620186226722  0.0612114487428599  0.1014109874308531   F   F   F
  0.5651292902279437  0.1811417385195710  0.3212370830278104   F   F   F
  0.7794888999990519  0.6719552849447155  0.3486584360440261   F   F   F
  0.2044467817050801  0.2821140261225281  0.2564978044967745   F   F   F
  0.6159769485321860  0.5368797968779973  0.1301972884476470   F   F   F
  0.3297259932312215  0.4639547679999012  0.2088634122805075   F   F   F
  0.3159122931706335  0.3351487397300374  0.1383058396972601   F   F   F
  0.3027472420607396  0.9724149435241642  0.1224764140851491   F   F   F
  0.4998224433520733  0.5870290158249176  0.1275644353271090   F   F   F
  0.8702330062044865  0.4644005354177807  0.3026695994751876   F   F   F
  0.5925025647434907  0.0629681348383713  0.2931940283460506   F   F   F
  0.4608335795572884  0.1388770297777810  0.1851002178263741   F   F   F
  0.4793713057686873  0.7922626400994446  0.3025246057018620   F   F   F
  0.5128491247485982  0.4105137363917777  0.3182692917964616   F   F   F
  0.0995683219773866  0.8424788706276090  0.3046059281477795   F   F   F
  0.3120903448442220  0.4165679551537380  0.2780279196544200   F   F   F
  0.7812059037325412  0.1291573310112568  0.3400014544451011   F   F   F
  0.4917950502589576  0.7030700818653060  0.1621724722269349   F   F   F
  0.9895676555765931  0.8957537462329697  0.1675673088313587   F   F   F
  0.8859377272261781  0.7360795454901563  0.3376634559957097   F   F   F
  0.6125432179572954  0.5751630848072367  0.2728046290880570   F   F   F
  0.7920963660880389  0.8208771148648282  0.1260184423972248   F   F   F
  0.8856891640074309  0.3379327359775246  0.3110811412399244   F   F   F
  0.8212409132863030  0.4588752544838712  0.1639625550581485   F   F   F
  0.6385278091712507  0.2625002212090024  0.2271464249342472   F   F   F
  0.8978761349288078  0.8166589197150387  0.1614556953364712   F   F   F
  0.8749360335834808  0.0951037911537398  0.2947262752682178   F   F   F
  0.4438155339732575  0.9121923358595296  0.3163560821796665   F   F   F
  0.1070034551961783  0.0597529710727542  0.3075798737377866   F   F   F
  0.0339665921646883  0.4253097239208898  0.2223437624134164   F   F   F
  0.5735391856373582  0.8376926088979957  0.2643120130040870   F   F   F
  0.0030210353099420  0.1318567950120553  0.2112970194961150   F   F   F
  0.2174720944170971  0.2862745613480442  0.1030199322515557   F   F   F
  0.4381209732275835  0.8700085648529097  0.1653262411549008   F   F   F
  0.4123073888438356  0.0072954558014970  0.1524424942303497   F   F   F
  0.1245639771198697  0.1280877865303580  0.2138743942288457   F   F   F
  0.1009891146185353  0.9399574574510652  0.1770564224092368   F   F   F
  0.3016171889033288  0.9037512322216443  0.2604065137094196   F   F   F
  0.3622155307445496  0.7779725797595702  0.1404078022087418   F   F   F
  0.5898801961403066  0.0424289257891104  0.2161143109085586   F   F   F
  0.3176758985022090  0.0865133071545685  0.1510414204162842   F   F   F
  0.4093165662750735  0.3515271135537503  0.2503398088685671   F   F   F
  0.5163417880732410  0.2083154267397234  0.1316981552038854   F   F   F
  0.6961786083896726  0.3280608060909316  0.0621176891522595   F   F   F
  0.8381505870257868  0.7080919491527382  0.1511780501714881   F   F   F
  0.8373093241989338  0.6696807743540774  0.2256876564283701   F   F   F
  0.6205388418639899  0.2582391342544312  0.1064339272654067   F   F   F
  0.3813894851427833  0.7691312977483520  0.0663260071540819   F   F   F
  0.4210758201763838  0.0355319987601845  0.3038402604398911   F   F   F
  0.3145390569589281  0.5483833404237615  0.3145689462124324   F   F   F
  0.2452495965342294  0.1249000884145204  0.2134481188414981   F   F   F
  0.7410984906796187  0.5485382717918981  0.1436847797663532   F   F   F
  0.6296368406190567  0.0584699961124784  0.1429967870212394   F   F   F
  0.8139221784715929  0.9625195199656247  0.2176444714280095   F   F   F
  0.1671637729052122  0.3632140886631916  0.3438506942922572   F   F   F
  0.2427337336095903  0.6949820735719996  0.3142475628255994   F   F   F
  0.0450437908186530  0.7222633456780514  0.1517414624842530   F   F   F
  0.6688957793064532  0.6489331735091284  0.1353709946176167   F   F   F
  0.7071096202431733  0.0226496217134340  0.2002414858243000   F   F   F
  0.6485891554642151  0.8625599781424853  0.2071093621447488   F   F   F
  0.4112325025078576  0.3537313712628958  0.0869484104726439   F   F   F
  0.5194186448270202  0.2627340290030844  0.0606189676405577   F   F   F
  0.9120979108532197  0.8831828932052659  0.2266589821595559   F   F   F
  0.5278501981414081  0.3363275097126319  0.1226869653318374   F   F   F
  0.4045164337833782  0.1584668207587470  0.1170022993714497   F   F   F
  0.7722373796206270  0.7683798818475935  0.2474353127898112   F   F   F
  0.6335436167865893  0.9800676346773400  0.0833770464228465   F   F   F
  0.2153311063009511  0.4712740509363016  0.3209103538338809   F   F   F
  0.0531487203333540  0.6795090688383638  0.2229698099184745   F   F   F
  0.8869080867081749  0.9715953068631293  0.2803601038548393   F   F   F
  0.1845255569457862  0.0311980945283068  0.1798512936011036   F   F   F
  0.3365447091511484  0.0880249258556631  0.2605614829387264   F   F   F
  0.0438709873068674  0.6145994465132034  0.2888203374659000   F   F   F
  0.9172327767370945  0.1097533918417355  0.1586874589455789   F   F   F
  0.4460894078385280  0.1435010115626199  0.2619452976111205   F   F   F
  0.1816444623244777  0.1392787422361934  0.1447550945192120   F   F   F
  0.1314783998839104  0.9893190431545023  0.2444223846672244   F   F   F
  0.3204725498176160  0.8835284425587631  0.3361346011957949   F   F   F
  0.2967498609098698  0.1372190591606071  0.0798186223749227   F   F   F
  0.8642343457815116  0.2713793309568757  0.1081281112946186   F   F   F
  0.8916712305009753  0.7667967951302401  0.0911507710120461   F   F   F
  0.1152991120543092  0.7176991785226434  0.2860815994111690   F   F   F
  0.4759463596546922  0.8396575666659487  0.0942324634278151   F   F   F
  0.4354771022303936  0.0126512850439795  0.0741101132975075   F   F   F
  0.2187799510923085  0.8402469115168074  0.3047771901692187   F   F   F
  0.8071340258930775  0.0604690547584710  0.1673992869052512   F   F   F
  0.9441340074812814  0.6710520750375508  0.1858232772313926   F   F   F
  0.3171670887661548  0.2908015189258535  0.2882417148242098   F   F   F
  0.9167990589599029  0.0513187900749799  0.2272223655063570   F   F   F
  0.8001860079787804  0.5652728815516923  0.3096631767485718   F   F   F
  0.3581414450442892  0.6615728177062010  0.2936320468668683   F   F   F
  0.4969339289528634  0.2865014946724642  0.3312487550752294   F   F   F
  0.6612937011504414  0.1169109471976313  0.3463024514361379   F   F   F
  0.9212192022172303  0.5793135181870355  0.2918641059867753   F   F   F
  0.9723128924535374  0.5518268620468234  0.0985868978606916   F   F   F
  0.5116759956948442  0.9829763074269238  0.2655897749416525   F   F   F
  0.4041564513077844  0.6684439183418434  0.1116427869175425   F   F   F
  0.3802006698174907  0.1421449168370330  0.3281427837061841   F   F   F
  0.4762452057784898  0.3688227986189361  0.1874838069352123   F   F   F
  0.0227714417671407  0.5073945610609982  0.1625161151858521   F   F   F
  0.0831051381761156  0.4958185224414322  0.0943575020429535   F   F   F
  0.2077159587853714  0.5800912324745013  0.1825609652978244   F   F   F
  0.9806661568021227  0.2543051856499403  0.1318319458903900   F   F   F
  0.1951854244305196  0.4895547406760699  0.1291169383985178   F   F   F
  0.3675303619188668  0.8952638609246861  0.0768239810196647   F   F   F
  0.3085878042419523  0.5373327895251734  0.1467605338338984   F   F   F
  0.7425071182241965  0.4036090810155883  0.1159477424187614   F   F   F
  0.1577120326823263  0.6995407939710532  0.1180136866980845   F   F   F
  0.5625910913423056  0.6150031865849783  0.3368723219459326   F   F   F
  0.6136063067559121  0.2926556159796831  0.3016840716769238   F   F   F
  0.4536685399051521  0.2496032964555823  0.2174721140297891   F   F   F
  0.2627680296244748  0.1787054070627647  0.2812590436275713   F   F   F
  0.6863633786426959  0.5937796447746493  0.3338350508563082   F   F   F
  0.5328492503144062  0.3285292128845327  0.2500474624097393   F   F   F
  0.3963142022501529  0.3625214359335303  0.3263060479935618   F   F   F
  0.2994158062001091  0.2116644514774748  0.1405650200796700   F   F   F
  0.5995172178872323  0.3898558465474196  0.1771321890156372   F   F   F
  0.5364951565368159  0.5137610150121645  0.0699946831670815   F   F   F
  0.2375058501173939  0.3892709763340463  0.2203612922132194   F   F   F
  0.6416277927951057  0.3836322013821203  0.2489373417265668   F   F   F
  0.0407229475096216  0.9621163958363681  0.1107265749927890   F   F   F
  0.8536449064045826  0.5850870729289852  0.1707138160859074   F   F   F
  0.6906409407658671  0.5715060561771352  0.0735674578142138   F   F   F
  0.6291767753182000  0.4975536624124572  0.2142742940445075   F   F   F
  0.0714925047830093  0.1748359183685935  0.1147373216981080   F   F   F
  0.9123890762045832  0.2667549395165807  0.3749219460883992   F   F   F
  0.8342452736573875  0.1161910018061647  0.1011747115193060   F   F   F
  0.5006164439176715  0.0800777950450922  0.1226289974610282   F   F   F
  0.6295435829655887  0.9501558104069900  0.2628067442652053   F   F   F
  0.2291806878114144  0.6018314520631094  0.1059332397273920   F   F   F
  0.0666721484246366  0.2289099281076119  0.1853572238099375   F   F   F
  0.7624849379419345  0.9405121223835380  0.1510430219160810   F   F   F
  0.8214260949571539  0.1927535743852573  0.1621362660759615   F   F   F
  0.2185074781437422  0.2551747095551633  0.3320843864212506   F   F   F
  0.0254271030837785  0.1115803049021267  0.3538399634610911   F   F   F
  0.7244053004451132  0.0614940340265591  0.0937500777407507   F   F   F
  0.3046151860266306  0.4146465200822718  0.0787630562289721   F   F   F
  0.7747052309625602  0.7912817093502156  0.3247356117531837   F   F   F
  0.0741370432118913  0.6073756367948704  0.1275999690465852   F   F   F
  0.8566119847591693  0.2160932903044852  0.3150770127976870   F   F   F
  0.1257520159802539  0.3456297885859954  0.2138999569751761   F   F   F
  0.0389169983000102  0.3278309263794696  0.2682265506893700   F   F   F
  0.6583783309294304  0.1620826796807435  0.2718034316827840   F   F   F
  0.2299111955910007  0.5084271946406105  0.2446708808400615   F   F   F
  0.7403453849864192  0.6566217754010353  0.2753933106961242   F   F   F
  0.7418875552295461  0.2504909274423781  0.1166945667141306   F   F   F
  0.0082881205033658  0.4978905054561267  0.3072989430125261   F   F   F
  0.2126023138622699  0.5863652553480279  0.3527142712055920   F   F   F
  0.3214727253274106  0.7835728304432408  0.2857063938339124   F   F   F
  0.0939123787561371  0.2645193433078532  0.3256568279111320   F   F   F
  0.4066567941896864  0.5552155379757622  0.2633245795125703   F   F   F
  0.7389150755314233  0.0168969214574375  0.3558731995611524   F   F   F
  0.4166390167180865  0.5372619121811582  0.1852058770068936   F   F   F
  0.0537387063694510  0.6994263290231970  0.0754913560101613   F   F   F
  0.9968318699212375  0.5412595157463116  0.2342778748972094   F   F   F
  0.5188894645685593  0.4615680665080362  0.1402372513976644   F   F   F
  0.9881885650712263  0.7855831762968677  0.2078903468914248   F   F   F
  0.1705895044924901  0.9535154946410458  0.3124346153139399   F   F   F
  0.5577922759598053  0.8440124761241918  0.1532084295651330   F   F   F
  0.2204748073078235  0.0581605332281256  0.2788099859086657   F   F   F
  0.3405709586035144  0.7313095435693384  0.3565859390970303   F   F   F
  0.2836660462379399  0.4961288787645799  0.3836411492749292   F   F   F
  0.4752406849060122  0.3671315250540346  0.3875516138395625   F   F   F
  0.1467452027327241  0.2750615992086693  0.3957255492700611   F   F   F
  0.5972654436661600  0.2624880984645941  0.3767406416017351   F   F   F
  0.7287183718802055  0.1043349506364279  0.4111319643263940   F   F   F
  0.9000218441627155  0.1334650032471814  0.3671754019934639   F   F   F
  0.8127755038437314  0.7650973541394492  0.3971039847621611   F   F   F
  0.8832868640039422  0.5432099980428191  0.3639587330719252   F   F   F
  0.8681820849645163  0.4091454754796544  0.3722789668579054   F   F   F
  0.7730199765020558  0.3954339983378503  0.3181844646110221   F   F   F
  0.0094700209466012  0.5371130213359550  0.3796120685318485   F   F   F
  0.9956581392813035  0.4122168207008912  0.3651878590061131   F   F   F
  0.5452829353456181  0.8652050907843076  0.3523037338535815   F   F   F
  0.0957199879010560  0.7583552794483239  0.3593334768303365   F   F   F
  0.1556422291389055  0.8789232297064871  0.3710490088978986   F   F   F
  0.0338246197078220  0.9830717431461053  0.3510717199616025   F   F   F
  0.4321207018294260  0.8223289714752084  0.3718788377905753   F   F   F
  0.5206742925143502  0.9928306460771168  0.3450449993746290   F   F   F
  0.6588409913255688  0.4449249200593286  0.0622721869107679   F   F   F
  0.7758283590488446  0.4208357578184589  0.0411917361632845   F   F   F
  0.6868981568198009  0.2039210064044568  0.0522161989050360   F   F   F
  0.1291292834099806  0.2895114673446173  0.0483526894793371   F   F   F
  0.1815292626112992  0.4911272094254713  0.0494535133869149   F   F   F
  0.4367339722925365  0.8536018487119037  0.0199186860356235   F   F   F
  0.2043471713906797  0.6812905046885689  0.0461116513055444   F   F   F
  0.2664504236775898  0.9500156201711434  0.0494295364783355   F   F   F
  0.8962089358572314  0.5870640512271947  0.0416098770537303   F   F   F
  0.9117390588142413  0.4622278734985770  0.0573630094943951   F   F   F
  0.8219602303541933  0.0093812055218621  0.0577138387359284   F   F   F
  0.7807167968066722  0.1222515701412306  0.0337531729613474   F   F   F
  0.1702136404175434  0.1619062851756041  0.0682974415238036   F   F   F
  0.0276301869690982  0.0291822484645650  0.0454405670838440   F   F   F
  0.1327651010133408  0.9664992608654899  0.0551980993975789   F   F   F
  0.9522165355464125  0.2795672376413521  0.0557881443260939   F   F   F
  0.9456367879430090  0.3681016550698004  0.1132837741047155   F   F   F
  0.6125576551696170  0.1023789968562312  0.0692365385572842   F   F   F
  0.3819152107606953  0.5294324142573217  0.5736353438165764   T   T   T
  0.5324250918807536  0.6798292690159400  0.5735680984192655   T   T   T
  0.5324399268770890  0.5293512959743722  0.4794109050386695   T   T   T
  0.6827950072364359  0.5293608247949564  0.5735106347857268   T   T   T
  0.5323508183102987  0.3791169138204609  0.5735756061324011   T   T   T
  0.5322431326850960  0.5295045234656470  0.6677553949996025   T   T   T
  0.3536548771887951  0.3855115251882637  0.1114109284484428   F   F   F
  0.2184955132342736  0.6738218847943145  0.0928730902859130   F   F   F
  0.3160110764419244  0.7186108016464559  0.3110929316717304   F   F   F
  0.3580010429511802  0.7287688632478293  0.1047391456407709   F   F   F
  0.2926234227568258  0.8536936622450000  0.2962033803688300   F   F   F
  0.4443928270310451  0.5729337309352758  0.2234288264289646   F   F   F
  0.3965314362460575  0.1031136503161818  0.2883689749940572   F   F   F
  0.6277296160722727  0.1864329966040330  0.2304650478066606   F   F   F
  0.9173304626911261  0.0408383511578165  0.2744538585685135   F   F   F
  0.0770064915810593  0.7705643707732008  0.3127949646271801   F   F   F
  0.8123414719244764  0.7410255801411552  0.3518223494245234   F   F   F
  0.8154792610228299  0.5306641740924789  0.1466181414873162   F   F   F
  0.4147385061593596  0.8381727510122232  0.0645203324521404   F   F   F
  0.5309592958414768  0.3909874297517106  0.1566709344708741   F   F   F
  0.4692388682925852  0.3568623381190505  0.3402939654709343   F   F   F
  0.6552758775946543  0.6772402232729391  0.1791146063725435   F   F   F
  0.4652421784194161  0.7142053541282536  0.2067830628142460   F   F   F
  0.7721208585174040  0.3986614151598999  0.1595188470136932   F   F   F
  0.8535890944885764  0.7775841039435107  0.1325659782455944   F   F   F
  0.8571171075030364  0.9234161756783053  0.2484722761436018   F   F   F
  0.8695859673951816  0.5378844095835902  0.3166602193782779   F   F   F
  0.6195206888841085  0.1309130483122019  0.3079587375341220   F   F   F
  0.7737741175234305  0.9964187689616963  0.1834036615351309   F   F   F
  0.5936468665076831  0.5626267218215943  0.2276143554025296   F   F   F
  0.6186839955065366  0.5671759096311035  0.3196345289456133   F   F   F
  0.9607014151071951  0.0775876519586873  0.1922771654689299   F   F   F
  0.3296159621360530  0.1479083537996573  0.1232479697650888   F   F   F
  0.2895720588545316  0.9157718612370616  0.2140183758156624   F   F   F
  0.7437678635988050  0.8797699940442314  0.1239309155221164   F   F   F
  0.7677340783604762  0.6942381716606505  0.2380743478916685   F   F   F
  0.9478082544259721  0.8458499236816976  0.1918467554405652   F   F   F
  0.7277879052979159  0.0913561485342740  0.3638365804878418   F   F   F
  0.1605428074619155  0.8801185210039506  0.3232035757231912   F   F   F
  0.0773353675056399  0.0055342660688709  0.0786774373963226   F   F   F
  0.4673702323186646  0.3233743356865375  0.2254881486231781   F   F   F
  0.0433575690460515  0.2608943371634140  0.2904936281378312   F   F   F
  0.4775969660474431  0.1773899280899727  0.2245033989499419   F   F   F
  0.1984941766750836  0.3249932235029149  0.2171929960192500   F   F   F
  0.0916097860064653  0.6560625610883406  0.2613204333621511   F   F   F
  0.1345798972903225  0.1338338956904153  0.1068466928675917   F   F   F
  0.0424380919401912  0.4970200865760859  0.2077519277690953   F   F   F
  0.3840779258244709  0.8192298638813114  0.1774957643108479   F   F   F
  0.4733627449603262  0.9813304972309993  0.3073271894792455   F   F   F
  0.6365847824920721  0.8754478722800982  0.2536958028402481   F   F   F
  0.2642976350341470  0.2791834322375877  0.1401989085480366   F   F   F
  0.6489065479401788  0.0529270411260683  0.0968403882512234   F   F   F
  0.5821594683116018  0.0094323774536136  0.2587619690606218   F   F   F
  0.1536634943177830  0.4663584217759862  0.0912668912231496   F   F   F
  0.5425182195318143  0.5251934194064205  0.1170036356998381   F   F   F
  0.4650188210675736  0.0126774404348708  0.1182248260277774   F   F   F
  0.8078658288575724  0.2607204583370617  0.1393271233880355   F   F   F
  0.6877087125872805  0.2610434057958813  0.0840594794791016   F   F   F
  0.5675245294419682  0.2556476592484955  0.3328564071878120   F   F   F
  0.4755192359472957  0.8471734281664638  0.3363314119000833   F   F   F
  0.0645111998083365  0.1738762945366830  0.2180087334871814   F   F   F
  0.1579927608839284  0.0156804369223167  0.2860247424862266   F   F   F
  0.8435481142403347  0.1211512678968347  0.1485575491604862   F   F   F
  0.9929492611798238  0.5590047878654829  0.2804736448733181   F   F   F
  0.2962214915124548  0.9190567533119278  0.0888171741286783   F   F   F
  0.8532557688746039  0.1426938418902779  0.3288557080099253   F   F   F
  0.2565617675209495  0.5263557669786536  0.3428264009221778   F   F   F
  0.0330984333635698  0.9557573501758228  0.1581230687505411   F   F   F
  0.1584757836915571  0.9687991175165607  0.2018412108990546   F   F   F
  0.2646950571060600  0.1117231445690194  0.2588629805888658   F   F   F
  0.0388175751137467  0.5405249683537505  0.1209685429888552   F   F   F
  0.7904611675085533  0.0750118535756670  0.0718595486610809   F   F   F
  0.3572556656191495  0.3558152815105302  0.2852352803566447   F   F   F
  0.0829019125067703  0.6821641496239295  0.1189062160040208   F   F   F
  0.1842134553828956  0.1062291832804831  0.1877446032128063   F   F   F
  0.2757055189595192  0.4466358312195879  0.2396303035578171   F   F   F
  0.1491353351154743  0.3157085685445367  0.0916207040415955   F   F   F
  0.5405783556871029  0.7720803035889787  0.2766035312420527   F   F   F
  0.2509455323805554  0.2519195622142192  0.2891525936795389   F   F   F
  0.7193203111617095  0.3994131380964276  0.0704230158816088   F   F   F
  0.8687991688020631  0.6580489919890482  0.1826997695493162   F   F   F
  0.4961463494993552  0.8764772625871160  0.1347722350403302   F   F   F
  0.3766917254401392  0.5877980953917401  0.3028053606224574   F   F   F
  0.6475867696856241  0.4237805468477731  0.2078444019466872   F   F   F
  0.8480962924663302  0.4004434724901813  0.3252653265803076   F   F   F
  0.7643303678291744  0.8212201042756178  0.2814699260655829   F   F   F
  0.6276615743885188  0.8243484885773640  0.1679836626491067   F   F   F
  0.6080371401944333  0.3161383570985592  0.2562742552882398   F   F   F
  0.4719839971356876  0.1469557880410974  0.1381466051846587   F   F   F
  0.5454413336045718  0.2656785250161917  0.1053462108035674   F   F   F
  0.4796622910177533  0.6606388915746635  0.1225811613125316   F   F   F
  0.0289966868642324  0.4767661609088307  0.3512260878909714   F   F   F
  0.9082368787031854  0.2692545846146217  0.3265348992765240   F   F   F
  0.0379661747686768  0.0496251006132340  0.3272604937632480   F   F   F
  0.3367492847554985  0.0127414879389534  0.1566750788217348   F   F   F
  0.3591569866988777  0.4944237836235601  0.1699563597638729   F   F   F
  0.1554171827562030  0.2887308128508437  0.3491059394750025   F   F   F
  0.1524515713171297  0.4295011188029250  0.3229284365444727   F   F   F
  0.6793884933155141  0.5766226279953059  0.1213056727229045   F   F   F
  0.2347727231259569  0.5519090641576128  0.1413132577232119   F   F   F
  0.1778593317351991  0.5540457289872904  0.2234544783603312   F   F   F
  0.0062777206610889  0.7150151114864443  0.1928668488095298   F   F   F
  0.7515370633013845  0.6222575474628158  0.3171242719565583   F   F   F
  0.9364339122046559  0.2944644806120920  0.1019381843752782   F   F   F
  0.6476864506707258  0.0666754498492921  0.1884070226659205   F   F   F
  0.0812841994420097  0.3796742861343176  0.2463366362247896   F   F   F
  0.9081655021111743  0.5343153532199949  0.0757266462553687   F   F   F
  0.0538772335508000  0.2388575304006793  0.1389499469913602   F   F   F
  0.7315506600236716  0.5828647291213755  0.0634913889940947   F   F   F
  0.5648319238387671  0.4818967534142757  0.0596649756222973   F   F   F
  0.3267503658232442  0.4376839064271891  0.0585282202229962   F   F   F
  0.4525589236972039  0.3535964849437221  0.0994361824073593   F   F   F
  0.4706115423620716  0.5955909095398582  0.3336324904392569   F   F   F
  0.5631497496176436  0.6214170164011179  0.3650674302434140   F   F   F
  0.5744809441148462  0.4703370177395527  0.3308485869809630   F   F   F
  0.2087060641004896  0.7154584903047621  0.3001034662135069   F   F   F
  0.3080739658075302  0.7437543132312499  0.3748526674272128   F   F   F
  0.2215159737562189  0.6253284847323286  0.3381753169741017   F   F   F
  0.2814514559372725  0.4510087765238495  0.3856742652431961   F   F   F
  0.5202442292767913  0.4011632648303873  0.2906426713063510   F   F   F
  0.4561954229458109  0.4038861528707045  0.3991424765368237   F   F   F
  0.1317254807756640  0.2338699210171953  0.4029346364376707   F   F   F
  0.5771053157832924  0.6911967759522426  0.3131128873066586   F   F   F
  0.5776856221712308  0.2928586083112350  0.3939555836288449   F   F   F
  0.3764121814782726  0.1871872246442905  0.3259681659396207   F   F   F
  0.7052261974443539  0.1401121285763196  0.4204874001423349   F   F   F
  0.9026234497021974  0.1712306275975877  0.3833776729590852   F   F   F
  0.9008165046090681  0.6949501745609012  0.3299615882665350   F   F   F
  0.7743713069736486  0.7823632281459041  0.4075320918288625   F   F   F
  0.9270573353900389  0.5476072917635193  0.3727797473826513   F   F   F
  0.7502474929834477  0.3575426818569767  0.3243777336362825   F   F   F
  0.8604388354285533  0.4517537616509344  0.3817906041267563   F   F   F
  0.0277438936446259  0.5386807290460567  0.4055946297174557   F   F   F
  0.9497834268840535  0.4121181628761832  0.3695734509762758   F   F   F
  0.9687705119163681  0.7728238283907487  0.3177016763552558   F   F   F
  0.0968247920665988  0.7152918233432857  0.3682520362411381   F   F   F
  0.1380460268529831  0.8397576108144307  0.3808284213327866   F   F   F
  0.9812002566491174  0.1187822271969310  0.3607943114009018   F   F   F
  0.0661542173020280  0.9729434037844271  0.3699818088238445   F   F   F
  0.5507122727600731  0.9103002585377808  0.3563053700234917   F   F   F
  0.3999662880336317  0.7906080583647537  0.3662054592487607   F   F   F
  0.3619898008906688  0.9026117172456551  0.3346334645706293   F   F   F
  0.7227451715201454  0.9872064953874187  0.3747203055728008   F   F   F
  0.5512463562465157  0.0259670432275669  0.3408339886332428   F   F   F
  0.9388510887436752  0.2972293367087815  0.3879263459763180   F   F   F
  0.8187048558783516  0.4241848618596507  0.0504902076321159   F   F   F
  0.6702284707158981  0.4895492417469782  0.0607890354222249   F   F   F
  0.7256583294115089  0.1830854582968016  0.0433430081542880   F   F   F
  0.3132197509219168  0.1028164908828373  0.0642992268726985   F   F   F
  0.1410314662167309  0.2454177454084956  0.0452485410745709   F   F   F
  0.2175019075776561  0.4676514995840364  0.0403407904191226   F   F   F
  0.2527764901943144  0.8220187352512980  0.0973752985963543   F   F   F
  0.4770833361717450  0.2772179066158529  0.0555571259572858   F   F   F
  0.4582834845551318  0.8216822526023293  0.0050254644644667   F   F   F
  0.1607850230679375  0.6802223309854440  0.0381495825335705   F   F   F
  0.4144175545554063  0.9743454117613339  0.0658161062465794   F   F   F
  0.0176414828169058  0.7270662245352639  0.0760364214957221   F   F   F
  0.8684165053333999  0.7472011483240948  0.0700991517716361   F   F   F
  0.7020919895441509  0.9290199878736018  0.0741327248132464   F   F   F
  0.5278673967170349  0.7341097526867628  0.0872810949821243   F   F   F
  0.2216809072431190  0.9603947114211806  0.0511078722223814   F   F   F
  0.9324924097503668  0.6114209738427547  0.0340268717208758   F   F   F
  0.9387670410212081  0.4553284386737175  0.0349280300611028   F   F   F
  0.5951331952505612  0.9623951321719915  0.0943058094016251   F   F   F
  0.7988922577096957  0.9707921247684652  0.0642958475773625   F   F   F
  0.7779763445674917  0.1023947277868018  0.0082935774898729   F   F   F
  0.2161537223830123  0.1562167692644110  0.0686689220318044   F   F   F
  0.9847121490552979  0.0367069281949313  0.0533822348616653   F   F   F
  0.9957098654902765  0.2826760912382014  0.0477690666573949   F   F   F
  0.9328660006993772  0.3992791218507818  0.0938773786946356   F   F   F