 O Si  H Mo  S Mo  S Mo  S Mo  S Mo  S M
   1.00000000000000     
    21.3948993682999991    0.0000000000000000    0.0000000000000000
     0.0000000000000000   21.3948993682999991    0.0000000000000000
     0.0000000000000000    0.0000000000000000   34.1699981689000012
   O    Si   H    Mo   S 
   236   102    64    10    22
Selective
Direct
0.2814187653740483 0.7098910305563217 0.1014167284882876  F  F  F
0.6106741058709098 0.6261744602374943 0.2004294026388916  F  F  F
0.1508664375160759 0.3901873686953383 0.0913605006195605  F  F  F
0.3793528954481477 0.4404169294269623 0.1409162784822842  F  F  F
0.6767874553735520 0.8497082482956039 0.1349554217707787  F  F  F
0.1040332026612475 0.4705829881371275 0.3507598395415782  F  F  F
0.0036824811495875 0.7593368867814241 0.3007864322299377  F  F  F
0.6583030832547894 0.1431890826462509 0.1955876068379417  F  F  F
0.2147749972132349 0.9168024796753786 0.2057008310106977  F  F  F
0.8443236446713928 0.5344542520088355 0.1019450408820334  F  F  F
0.4120427986631183 0.7703853915815229 0.2082860819079691  F  F  F
0.5181328342075261 0.5529958603458160 0.2240235558622858  F  F  F
0.1142884964254592 0.5128513591080808 0.2142718004451517  F  F  F
0.6079479940888798 0.4968347029983453 0.3333560547644769  F  F  F
0.4355664950834857 0.6490786582982897 0.2209678397713337  F  F  F
0.1274711652850362 0.4173351337605117 0.2801905433847279  F  F  F
0.5197099461773709 0.7370843285680314 0.2363914222833208  F  F  F
0.3190651528657319 0.9825840998617499 0.1991370552999225  F  F  F
0.3230410363114651 0.8575424621813902 0.1905310695917608  F  F  F
0.8120415662904449 0.8749102405168611 0.2736741603625431  F  F  F
0.9769066770190546 0.2474821625188869 0.3101206072360429  F  F  F
0.9862257684487064 0.0419120681848862 0.2921408546508448  F  F  F
0.0029767395502968 0.0208898651868577 0.1773231598281641  F  F  F
0.0987565790940907 0.2960354968501767 0.1262906094770132  F  F  F
0.5916694160813423 0.7331942483487344 0.2994953307015695  F  F  F
0.4274095590988272 0.5799719106864698 0.3388919737401932  F  F  F
0.8011760493967324 0.3274742815666397 0.1644533753067583  F  F  F
0.0654264904310984 0.2047300632404400 0.2627768306030737  F  F  F
0.5206277951699542 0.6922253266707299 0.0874387025655771  F  F  F
0.1522990989307079 0.6126544697853120 0.2513571726032330  F  F  F
0.5525284977919799 0.1780763867917523 0.2315975239032775  F  F  F
0.7181551300262095 0.4134179115232949 0.1911960748029526  F  F  F
0.5093718429162906 0.9499498511776189 0.1219566472282706  F  F  F
0.2520071689080663 0.8625501886687217 0.1085344560170720  F  F  F
0.6273205665591201 0.7493750929930876 0.1740659182861042  F  F  F
0.7420829702520588 0.9053107021821607 0.0785228030413058  F  F  F
0.6918057669831695 0.8513126819803302 0.2790324208789688  F  F  F
0.7207578066737688 0.6819999548647163 0.2005127669366346  F  F  F
0.2224595620612784 0.2839459771434144 0.1800821573209719  F  F  F
0.1120637107458003 0.0611838133223101 0.1023572926161590  F  F  F
0.5638953143078137 0.1860206854223791 0.3199730409329896  F  F  F
0.7779372332472168 0.6712126085377824 0.3479991721095250  F  F  F
0.2076575078526306 0.2868572310143020 0.2566507114160860  F  F  F
0.6152045610923009 0.5374316891440846 0.1288904414307486  F  F  F
0.3308341802591094 0.4677556052646880 0.2105913096869202  F  F  F
0.3165587917750369 0.3339567569231533 0.1390396560061215  F  F  F
0.3026065605888508 0.9707639784784767 0.1224221675884045  F  F  F
0.4992229608447780 0.5874583189553468 0.1254868540281887  F  F  F
0.8675475096204535 0.4624313946283809 0.3023389268672526  F  F  F
0.5913612000733299 0.0660834892374111 0.2937107636090833  F  F  F
0.4644340305506527 0.1373893543371857 0.1831133903960816  F  F  F
0.4791665411802605 0.7925956672282675 0.3033520559289605  F  F  F
0.5131069552626690 0.4162742228538709 0.3058880272292529  F  F  F
0.1000019591417258 0.8417032110635840 0.3041719368845594  F  F  F
0.3083284645767501 0.4120230043447703 0.2761658319065033  F  F  F
0.7799490080823808 0.1334978467576656 0.3412729123241747  F  F  F
0.4904924469112491 0.7017567711804008 0.1622410503171163  F  F  F
0.9886606997249280 0.8960352545784801 0.1698207655935362  F  F  F
0.8834021037452665 0.7328329698724462 0.3302664847687053  F  F  F
0.6129539508038161 0.5764641885933640 0.2708267603263009  F  F  F
0.7932829804900067 0.8230911459046101 0.1274777717991227  F  F  F
0.8853235805293836 0.3356353888322001 0.3096328942919642  F  F  F
0.8206933148449183 0.4595053206361414 0.1627063720688812  F  F  F
0.6381384574875680 0.2633481063839566 0.2252303059169894  F  F  F
0.9012722071769427 0.8133487810860842 0.1597213083789320  F  F  F
0.8712780583710706 0.0893126404764577 0.2975329392080808  F  F  F
0.4442158599916216 0.9127211091285982 0.3166634759471604  F  F  F
0.1058737178820808 0.0583975239446926 0.3075689562797309  F  F  F
0.0334965020349047 0.4250354507293698 0.2260461657849412  F  F  F
0.5703785120446559 0.8417204771368499 0.2646361727901316  F  F  F
0.0029705286134652 0.1324193679682783 0.2131978967167523  F  F  F
0.2177844120743893 0.2857937853779400 0.1028836148756546  F  F  F
0.4377599952307634 0.8692895271610421 0.1635527599253250  F  F  F
0.4122924762981343 0.0073411953457743 0.1513539364808303  F  F  F
0.1245616358411489 0.1276640355388842 0.2145942060432946  F  F  F
0.1008036288224064 0.9389168796967882 0.1773406852077915  F  F  F
0.3035735488001097 0.9015277161351835 0.2598056772276933  F  F  F
0.3612770057309976 0.7771956570507912 0.1396592722571261  F  F  F
0.5897548354578710 0.0442665124191205 0.2164181785792550  F  F  F
0.3172452850708699 0.0855917415307881 0.1507630651514591  F  F  F
0.4070251105827574 0.3507882956291540 0.2453450313891077  F  F  F
0.5156576478604916 0.2080393763667199 0.1282047495185379  F  F  F
0.6966315218058262 0.3278222932751357 0.0607244337604473  F  F  F
0.8387113557198346 0.7074439297881218 0.1506492907508095  F  F  F
0.8361886402587977 0.6709839757341471 0.2255804185707075  F  F  F
0.6207850770250922 0.2578313946664871 0.1047046323831487  F  F  F
0.3785240776534251 0.7666586260610028 0.0656249906729762  F  F  F
0.4206509551800679 0.0363943915973274 0.3050345533423824  F  F  F
0.3156379196886658 0.5454827619324510 0.3137414109092779  F  F  F
0.2454386088861316 0.1236212001047431 0.2137039225147082  F  F  F
0.7397076261580157 0.5492176208252604 0.1436219907307755  F  F  F
0.6295638238195246 0.0584322341618138 0.1429831627862955  F  F  F
0.8136881421161313 0.9625200844804738 0.2177253538149942  F  F  F
0.1649567144815725 0.3646812458373222 0.3469488181471360  F  F  F
0.2431863727930953 0.6931594021025597 0.3151134947151973  F  F  F
0.0428438574607506 0.7204884320109587 0.1512252097827728  F  F  F
0.6676498533493318 0.6499206005300033 0.1339209240726683  F  F  F
0.7069039457449459 0.0231843676808184 0.2003801114272501  F  F  F
0.6451505963164569 0.8642405813537128 0.2067307980607001  F  F  F
0.4098814594791340 0.3541092966525876 0.0869713329884368  F  F  F
0.5212306066835527 0.2628638569234251 0.0573979019253332  F  F  F
0.9081260997337466 0.8786971013598310 0.2263519794169215  F  F  F
0.5288386031742136 0.3365829992376047 0.1196215479423924  F  F  F
0.4036678985469870 0.1577453396343014 0.1164541980109302  F  F  F
0.7686019529115800 0.7680046071846254 0.2472100882211731  F  F  F
0.6338451974365363 0.9801479684766063 0.0832794920533147  F  F  F
0.2176783807818719 0.4704926685835987 0.3237374788753796  F  F  F
0.0538452683160479 0.6784849466655268 0.2226125727528209  F  F  F
0.8878884778876323 0.9685326852231323 0.2796951999234962  F  F  F
0.1839667581109416 0.0304332497953677 0.1801523562516240  F  F  F
0.3351678048199026 0.0894133886842750 0.2626189241782821  F  F  F
0.0408472206197394 0.6155214332847865 0.2890661235831173  F  F  F
0.9181754903347362 0.1100570829368453 0.1593294004148191  F  F  F
0.4460623298319216 0.1411152892238680 0.2597010401117083  F  F  F
0.1812865509254879 0.1383723917334823 0.1452661636401625  F  F  F
0.1311416356123248 0.9880420270280343 0.2446674317778273  F  F  F
0.3211517512647811 0.8831220823076705 0.3357846152663126  F  F  F
0.2953634085871911 0.1361996301998852 0.0797280597878265  F  F  F
0.8649255253748720 0.2712492240281001 0.1077205980180905  F  F  F
0.8833993906998324 0.7623909296687806 0.0885071283837602  F  F  F
0.1145894252827554 0.7166925489865684 0.2864861081411365  F  F  F
0.4738771438135413 0.8378874038066605 0.0924795556112960  F  F  F
0.4320563811742454 0.0124574024604496 0.0725407120541474  F  F  F
0.2193504144106690 0.8399111237414271 0.3047641205989003  F  F  F
0.8075058419788081 0.0612355578327757 0.1679573986873518  F  F  F
0.9433505305287281 0.6703409599322155 0.1867325577688290  F  F  F
0.3215839405925085 0.2869852162130564 0.2863913362360948  F  F  F
0.9147241985635265 0.0538011791424221 0.2285171693552272  F  F  F
0.7980627339970626 0.5633604597460019 0.3104329062771292  F  F  F
0.3583516502918653 0.6595529684378595 0.2942691882950056  F  F  F
0.5018297074458757 0.2956196395908938 0.3324680505367013  F  F  F
0.6597290838101980 0.1229868225854171 0.3463170292770286  F  F  F
0.9183972568682929 0.5787032274164824 0.2927107544029302  F  F  F
0.9705031157006915 0.5491104679009272 0.1002066254821811  F  F  F
0.5113111372596632 0.9851053407162055 0.2660729400841047  F  F  F
0.4019555572899692 0.6672475300832449 0.1119428606023114  F  F  F
0.3850551485834270 0.1463204269692551 0.3275270995409927  F  F  F
0.4771687411670255 0.3667865213651691 0.1842783308225033  F  F  F
0.0210595129772694 0.5037789643009395 0.1638893657767797  F  F  F
0.0809848370987303 0.4922788786410663 0.0959657982753927  F  F  F
0.2058308697869834 0.5796607847788121 0.1837626895522463  F  F  F
0.9809137221517504 0.2557142298388083 0.1330010080200923  F  F  F
0.1935812769068692 0.4878469202932093 0.1308303884370421  F  F  F
0.3646820328304063 0.8930077458242135 0.0754628141704616  F  F  F
0.3065071844922606 0.5376587486199903 0.1475315448027777  F  F  F
0.7418655950553378 0.4034043109876533 0.1149443036496720  F  F  F
0.1545551185184255 0.6977231305893030 0.1171938069551052  F  F  F
0.5607949072700358 0.6156067329506727 0.3346867692470776  F  F  F
0.6150282758002705 0.2958571355220754 0.2996909625036550  F  F  F
0.4526084205178407 0.2476261400445961 0.2151218237964463  F  F  F
0.2581813758507424 0.1790694878411380 0.2813482339680230  F  F  F
0.6838865817439558 0.5941645521983322 0.3333364496425157  F  F  F
0.5313952673950982 0.3265074982725593 0.2474983882477824  F  F  F
0.3991357435416330 0.3646945976426385 0.3211854366887655  F  F  F
0.2986688240677137 0.2105909423057159 0.1405512516277964  F  F  F
0.5998679492946606 0.3916876680055496 0.1744539086131792  F  F  F
0.5375401486047772 0.5154457036682961 0.0677460434534587  F  F  F
0.2372246311597414 0.3916697485512353 0.2157610412948539  F  F  F
0.6388308292219026 0.3853861265430705 0.2469160365987614  F  F  F
0.0374460288952023 0.9633100039830719 0.1126225314348529  F  F  F
0.8521543619837151 0.5851967726812902 0.1711310691664722  F  F  F
0.6913792673854078 0.5717074679208337 0.0728049148623023  F  F  F
0.6293253545948877 0.4988132183416076 0.2122322431861945  F  F  F
0.0707241625525012 0.1749279818977320 0.1166633355688121  F  F  F
0.9112408087674297 0.2671660919893288 0.3745444135400820  F  F  F
0.8354051392167916 0.1151545104190488 0.1014316409536043  F  F  F
0.4999197772177392 0.0792825961348184 0.1197870122744387  F  F  F
0.6291430393679660 0.9525944971904734 0.2629183792860043  F  F  F
0.2260942185365833 0.6000991796597612 0.1068163634650135  F  F  F
0.0662466807245520 0.2292440808378635 0.1870412375946701  F  F  F
0.7623846895433666 0.9419608958228343 0.1510366878439099  F  F  F
0.8216868490330120 0.1930297214735494 0.1616669241998610  F  F  F
0.2232946834948621 0.2613673900548929 0.3321432367341554  F  F  F
0.0253513952876126 0.1111071175668922 0.3538753509750837  F  F  F
0.7246222717765429 0.0616653655196891 0.0937539554204831  F  F  F
0.3042306510746848 0.4146105129039254 0.0790049578421184  F  F  F
0.7709818948053083 0.7902449240943494 0.3242305232256517  F  F  F
0.0728409552966676 0.6040959652407252 0.1293508110021338  F  F  F
0.8600200564981746 0.2131341084363975 0.3121184196876267  F  F  F
0.1256294015349946 0.3462462191941823 0.2148148701449756  F  F  F
0.0420521182245838 0.3277354742713124 0.2713154889546829  F  F  F
0.6579816921576738 0.1635939313853928 0.2711165579717491  F  F  F
0.2283130391859470 0.5074188445876708 0.2455477891058543  F  F  F
0.7397222372846216 0.6546942100353156 0.2745867544375074  F  F  F
0.7421758093877111 0.2508987221764625 0.1159648811955472  F  F  F
0.0059415411346395 0.4986297510206218 0.3080818065372086  F  F  F
0.2193886174620089 0.5858049244556568 0.3568242794669143  F  F  F
0.3215228835753956 0.7818821983404209 0.2861741854489407  F  F  F
0.0980905659523943 0.2621505526450926 0.3275224211288305  F  F  F
0.4083853765427539 0.5544370295335566 0.2633297839655298  F  F  F
0.7334766229235063 0.0208234570550922 0.3541694055369031  F  F  F
0.4157363487132776 0.5402170999090281 0.1845540559195907  F  F  F
0.0489327940862365 0.6918439829979037 0.0755768638972758  F  F  F
0.9951859845514112 0.5412391388026765 0.2349000216447592  F  F  F
0.5180028704129410 0.4615139502572833 0.1375510671841881  F  F  F
0.9885509652408844 0.7843181407841534 0.2084574905485515  F  F  F
0.1705835933077689 0.9525923682565630 0.3126550532428238  F  F  F
0.5577270224666999 0.8445773916817304 0.1505921232357398  F  F  F
0.2195203890120801 0.0573698790621363 0.2790761642507942  F  F  F
0.3415242532979949 0.7295417248148039 0.3569618662309813  F  F  F
0.2910639903541612 0.4955888988107256 0.3848988911129059  F  F  F
0.4791272563263718 0.3936850038091941 0.3776592961793187  F  F  F
0.1542086857309775 0.2727181765368703 0.3972024859824217  F  F  F
0.6036883900668385 0.2630333269369785 0.3750090689344341  F  F  F
0.7260277895777850 0.1042052795686718 0.4113636438347470  F  F  F
0.8997199596911736 0.1338620548054449 0.3676620891421553  F  F  F
0.8211202274018308 0.7639514587751534 0.3937504960265525  F  F  F
0.8818841215334923 0.5373736640652356 0.3644914967249234  F  F  F
0.8680923175096319 0.4038240207641309 0.3713984320042827  F  F  F
0.7718440074471804 0.3913506049514156 0.3179135974588265  F  F  F
0.0082762027612034 0.5375057298156991 0.3802450371194024  F  F  F
0.9989267205081788 0.4121040042874492 0.3657815231226600  F  F  F
0.5449814271128981 0.8656950356468611 0.3534720062010358  F  F  F
0.0940327885129212 0.7585115965395537 0.3592021958330880  F  F  F
0.1547643882302003 0.8771620196948151 0.3709895631776406  F  F  F
0.0331541771683930 0.9822537904811247 0.3515089281908144  F  F  F
0.4318360631715373 0.8229494034323004 0.3723912997048033  F  F  F
0.5209908635053857 0.9932857379013720 0.3454519661508723  F  F  F
0.6595303347293401 0.4449870203280875 0.0608075568543452  F  F  F
0.7766773706862837 0.4205616921376980 0.0403163186241074  F  F  F
0.6878305380642370 0.2031871546656775 0.0516008205411999  F  F  F
0.1267851695263060 0.2874935425409758 0.0497838010065531  F  F  F
0.1797624247102624 0.4939454738895232 0.0514925668325976  F  F  F
0.4333194964403433 0.8500089570186626 0.0183748363246843  F  F  F
0.2048669727805416 0.6784752090962297 0.0460150237997611  F  F  F
0.2627819031980590 0.9493312019039923 0.0499817756777238  F  F  F
0.9009602530760579 0.5825544950309199 0.0390621572932816  F  F  F
0.9080152117536763 0.4611310091548242 0.0576903783005350  F  F  F
0.8219394837154766 0.0089396207462015 0.0577157277985410  F  F  F
0.7817201220373658 0.1220758041707845 0.0339123006130311  F  F  F
0.1679986527680380 0.1618809881393825 0.0690596191303469  F  F  F
0.0248823545208183 0.0291952655035135 0.0469013725061727  F  F  F
0.1290724025478809 0.9651033431534557 0.0569886100914444  F  F  F
0.9546847778328239 0.2797991220167106 0.0564621502510227  F  F  F
0.9452812723757311 0.3686761826284805 0.1135887341984863  F  F  F
0.6126964350484405 0.1025645549824162 0.0693068561395606  F  F  F
0.3528259229705961 0.3856334394733870 0.1120408867382252  F  F  F
0.2162883667394116 0.6717929699462021 0.0930740662580102  F  F  F
0.3163581282513708 0.7169069330727642 0.3115237425184781  F  F  F
0.3556347821375047 0.7271623858661176 0.1045483672598617  F  F  F
0.2932365533805155 0.8525455210505705 0.2960725329884620  F  F  F
0.4446558661328962 0.5738491341980814 0.2232351658805824  F  F  F
0.3972483158952632 0.1039971886618922 0.2884889631710240  F  F  F
0.6277427296207750 0.1873262275759122 0.2295603027744205  F  F  F
0.9159017759751634 0.0390499948088496 0.2753415133042650  F  F  F
0.0761725545661909 0.7703405436436571 0.3125081320775232  F  F  F
0.8124820289583371 0.7396256720445381 0.3488814544159742  F  F  F
0.8142870229117459 0.5316765854485831 0.1460772165498082  F  F  F
0.4118231398456272 0.8357539368616196 0.0632300581262105  F  F  F
0.5314865867108188 0.3910015480151048 0.1537793658736683  F  F  F
0.4729044146084222 0.3668243133086893 0.3334195396385688  F  F  F
0.6545384064455745 0.6780633689926209 0.1777946491816246  F  F  F
0.4647633338447605 0.7150648361823552 0.2067673474170073  F  F  F
0.7719697858702587 0.3989312810023368 0.1584116809212994  F  F  F
0.8529262535732877 0.7766274044436956 0.1319052719310561  F  F  F
0.8554573315087014 0.9214668907611393 0.2483391226002581  F  F  F
0.8674557430885119 0.5355300154854067 0.3171710907112265  F  F  F
0.6181265236605689 0.1347346820387036 0.3076632804576034  F  F  F
0.7737871705950411 0.9973045271205278 0.1837299003946725  F  F  F
0.5934411892140031 0.5634473767509832 0.2258191881711986  F  F  F
0.6167854133491694 0.5677478802264837 0.3177011752820632  F  F  F
0.9603951127657072 0.0784584725675044 0.1939625161138856  F  F  F
0.3288297566164684 0.1470268966650253 0.1229653132940279  F  F  F
0.2901752846619965 0.9152050458819103 0.2137015803028123  F  F  F
0.7441029085648785 0.8809550066403443 0.1243579762455031  F  F  F
0.7659101302801025 0.6938924533536285 0.2375315267638232  F  F  F
0.9472010498031100 0.8436745104153930 0.1920752855776282  F  F  F
0.7252964096714566 0.0951980839734617 0.3638181993951451  F  F  F
0.1606494445049717 0.8791445972022657 0.3232102502869006  F  F  F
0.0745050349879827 0.0055999881478366 0.0802014643997831  F  F  F
0.4663811872233097 0.3216265830527630 0.2221416333997114  F  F  F
0.0462423334779601 0.2601809818254504 0.2929892583641956  F  F  F
0.4781332052207185 0.1760298853579156 0.2228500391555497  F  F  F
0.1988194765412201 0.3265474871163205 0.2163354969135615  F  F  F
0.0902962648742313 0.6553779390471568 0.2618055740861115  F  F  F
0.1331979693207933 0.1336186416913711 0.1078976429559022  F  F  F
0.0408373007329804 0.4956570484927701 0.2092818708445544  F  F  F
0.3835872525777332 0.8190307166173226 0.1763215515053884  F  F  F
0.4732744699372257 0.9822795637983179 0.3078968994547994  F  F  F
0.6341416282923725 0.8778070084311369 0.2533739461357792  F  F  F
0.2642370297913179 0.2784990367050810 0.1403054511861433  F  F  F
0.6490561663796028 0.0530072867559728 0.0968302511270090  F  F  F
0.5817068897701075 0.0120826885975729 0.2593243267525954  F  F  F
0.1524850401322631 0.4654678799939390 0.0924886771560155  F  F  F
0.5421292731286165 0.5257972242823393 0.1149171812620383  F  F  F
0.4634259211250669 0.0122522534733186 0.1161749321241354  F  F  F
0.8081752476313785 0.2608984524842233 0.1386813685616765  F  F  F
0.6884312011789407 0.2609733269104427 0.0829516259467212  F  F  F
0.5701722991748415 0.2602411394705456 0.3321353776007480  F  F  F
0.4755401825132497 0.8478046685923353 0.3369327645761941  F  F  F
0.0649381856722775 0.1739647948992104 0.2195662545102600  F  F  F
0.1572650183116605 0.0146475554527585 0.2862927055245946  F  F  F
0.8444443966779183 0.1213478482284867 0.1488030918127138  F  F  F
0.9905045294858156 0.5593146916258661 0.2810396482658649  F  F  F
0.2941300615415995 0.9176331668623563 0.0887067906291670  F  F  F
0.8526831885160643 0.1419579695034948 0.3293562748549341  F  F  F
0.2605550033209024 0.5249396977963382 0.3446358406734914  F  F  F
0.0320606401951976 0.9559083007357632 0.1600511055919306  F  F  F
0.1583545855532707 0.9678794097043337 0.2021244469985390  F  F  F
0.2631508761514836 0.1117831149128608 0.2595720899944230  F  F  F
0.0369860337525619 0.5373700314196853 0.1224299320883790  F  F  F
0.7909647849227431 0.0747946187214746 0.0720440310511567  F  F  F
0.3575681371931888 0.3541408736236050 0.2817449952637311  F  F  F
0.0801929322858065 0.6785470893850214 0.1189885886913748  F  F  F
0.1839386033075738 0.1054367361169617 0.1882660348417815  F  F  F
0.2743921394758917 0.4465205382034450 0.2385491804481413  F  F  F
0.1488805099656247 0.3149004585658908 0.0923289702365641  F  F  F
0.5397900422322742 0.7745926260105379 0.2762824240496922  F  F  F
0.2526338431602759 0.2532353488140623 0.2887462595022198  F  F  F
0.7198004247022806 0.3992589749750063 0.0691794964078591  F  F  F
0.8681335933688438 0.6579386286919777 0.1828834963985209  F  F  F
0.4950571101983025 0.8757432501462507 0.1325015448483137  F  F  F
0.3774462464174488 0.5858254404581140 0.3027246775937161  F  F  F
0.6471922579482138 0.4250215067643435 0.2058099006369594  F  F  F
0.8471265543909091 0.3974065354084105 0.3242884952014412  F  F  F
0.7608529119041481 0.8209854650647864 0.2811466329995513  F  F  F
0.6266759909604340 0.8254386425262852 0.1673113277773612  F  F  F
0.6072006177060988 0.3170162723248625 0.2540640703465923  F  F  F
0.4723633739100574 0.1462850626529212 0.1359841820318965  F  F  F
0.5458433045511095 0.2655586698874138 0.1025118960894668  F  F  F
0.4779181621906651 0.6609139984018084 0.1219782278921985  F  F  F
0.0290019344581250 0.4778679194562359 0.3516227220842785  F  F  F
0.9088921029539538 0.2677593511016418 0.3262275021599582  F  F  F
0.0370649881796303 0.0487404949667989 0.3275960174392044  F  F  F
0.3367405273408589 0.0118983604447457 0.1562288270246385  F  F  F
0.3582869098050551 0.4960975510282629 0.1704677845184642  F  F  F
0.1586607405638556 0.2893598080533291 0.3507977802213790  F  F  F
0.1536406550845152 0.4303173927656799 0.3247105129337256  F  F  F
0.6787620717038303 0.5772787247699344 0.1203504405409312  F  F  F
0.2324465526787771 0.5509755633792237 0.1425584067917792  F  F  F
0.1761376835951738 0.5530973155890664 0.2245672772669783  F  F  F
0.0059036386332121 0.7138238021014763 0.1930554080734846  F  F  F
0.7498191071033542 0.6211328873331352 0.3167354779916352  F  F  F
0.9371931964611471 0.2949030880973380 0.1023130169764969  F  F  F
0.6476448244860863 0.0673059668230114 0.1883664163037799  F  F  F
0.0829497419975505 0.3796243118769902 0.2485305888892441  F  F  F
0.9074911773764626 0.5335762766144320 0.0755822967220096  F  F  F
0.0538563511504688 0.2394483526057000 0.1406134507091005  F  F  F
0.7320687938287986 0.5844153801149896 0.0629858841109153  F  F  F
0.5657415778523309 0.4833873246827652 0.0575075288699221  F  F  F
0.3213339685751398 0.4111013418598533 0.0527659961205807  F  F  F
0.4519459096566146 0.3532009940041483 0.0983724995164307  F  F  F
0.4704805569160752 0.5935075238779306 0.3339709541315980  F  F  F
0.5599241454234165 0.6198813133555954 0.3632521695725204  F  F  F
0.5741539111948791 0.4697603150814855 0.3233535566297184  F  F  F
0.2088514764271353 0.7129913084696478 0.3009037359828453  F  F  F
0.3091844306397158 0.7431406106631607 0.3750385392039031  F  F  F
0.2248712260931574 0.6238952717723721 0.3408172210614267  F  F  F
0.2962407759419180 0.4505382483209848 0.3851750749418272  F  F  F
0.5209606051731732 0.4017822809464990 0.2792138586557475  F  F  F
0.4687002701261773 0.4373602810883676 0.3825305675112251  F  F  F
0.1343936480312863 0.2335805005595196 0.4042961033741375  F  F  F
0.5782555220165335 0.6940570823288403 0.3119417025524022  F  F  F
0.5906179331704328 0.2963607994436625 0.3926971033627002  F  F  F
0.3805133019545868 0.1910999531103630 0.3239873459736292  F  F  F
0.7122513604997109 0.1438036556526360 0.4221473747887975  F  F  F
0.9007613395536315 0.1711559514328494 0.3843582411598337  F  F  F
0.8939992946250482 0.6936016064766468 0.3174679959577306  F  F  F
0.7879280785354951 0.7890433604442169 0.4049238417101051  F  F  F
0.9253301448318776 0.5446394979068945 0.3732298032227941  F  F  F
0.7503206771318800 0.3520406521626281 0.3220948544941426  F  F  F
0.8616872707342437 0.4461181921058842 0.3818274589994144  F  F  F
0.0247695241123567 0.5377399981106626 0.4067107903124558  F  F  F
0.9533935870767866 0.4080629150937769 0.3694355919671121  F  F  F
0.9672593385971383 0.7693023201936607 0.3168291820619981  F  F  F
0.0926613338202295 0.7157731518477412 0.3686937634247382  F  F  F
0.1363307026910159 0.8380837203097541 0.3803280636743219  F  F  F
0.9814357407115272 0.1190176367818334 0.3612324820258993  F  F  F
0.0653111411335118 0.9725182655192273 0.3706063035512037  F  F  F
0.5508726755389438 0.9108487341057819 0.3569141512689935  F  F  F
0.4002594573971371 0.7908187309142726 0.3664795219367739  F  F  F
0.3623988770087188 0.9027423053909662 0.3340370625139499  F  F  F
0.7199264265351993 0.9908946588249579 0.3736626006186098  F  F  F
0.5509081761954716 0.0271420591904723 0.3416537445770612  F  F  F
0.8959873198064762 0.3034976819007300 0.3887988183945156  F  F  F
0.8192501037047452 0.4259533032121413 0.0499197121451457  F  F  F
0.6712972673726693 0.4894989937321921 0.0593986971283590  F  F  F
0.7266313682673743 0.1823762117939565 0.0427608367405091  F  F  F
0.3112582206179871 0.1013865775199468 0.0643214175433614  F  F  F
0.1385772965509494 0.2432583632399082 0.0469997189683970  F  F  F
0.2239193626035719 0.4858598164456147 0.0472216954181560  F  F  F
0.2511490648367354 0.8204844260597424 0.0980154856044363  F  F  F
0.4784861684786873 0.2754946750744789 0.0519206225489479  F  F  F
0.4546206307914211 0.8175381108241884 0.0037909464776595  F  F  F
0.1630004416665599 0.6703921559318480 0.0362981465263256  F  F  F
0.4115052069894829 0.9739193817054568 0.0641903025193152  F  F  F
0.0139299014963755 0.7208144660414131 0.0757062024162357  F  F  F
0.8758111604024035 0.7941453739414327 0.0687976367981836  F  F  F
0.7026688073948025 0.9285852205390830 0.0738409375586432  F  F  F
0.5221960400792416 0.7377081227746659 0.0874344371633616  F  F  F
0.2179614610222244 0.9591581746608301 0.0522508471415348  F  F  F
0.9268152949423274 0.6197593588863977 0.0400955293189680  F  F  F
0.9334419071193937 0.4539853532748014 0.0345380679025489  F  F  F
0.5948349787292159 0.9626759432686236 0.0934824592948534  F  F  F
0.7983286603343320 0.9706918888219034 0.0643995545219772  F  F  F
0.7802076693754709 0.1023292244172328 0.0083807057492356  F  F  F
0.2139134044349424 0.1560556812565548 0.0689528696309070  F  F  F
0.9823376397543835 0.0382542328348694 0.0549624535378517  F  F  F
0.9984532127995487 0.2831841929578294 0.0490156334111679  F  F  F
0.9315921874969105 0.3994603316150332 0.0941679153024332  F  F  F
0.1134258448719782 0.9357540551401061 0.0376604051074195  F  F  F
0.6357707151441665 0.1407181590413555 0.0614692484041647  F  F  F
0.6148105134258625 0.3334512430422264 0.4978043195884889  T  T  T
0.4779152501909360 0.3356778381555640 0.5023052400271373  T  T  T
0.5523904879962884 0.4458959112395940 0.4871914788981225  T  T  T
0.6851390283395983 0.4474860861469369 0.4865871216122527  T  T  T
0.4129777878038552 0.4555815568208580 0.4955604842918673  T  T  T
0.3404085728395836 0.3341303683052293 0.5038115298006319  T  T  T
0.7548733682288553 0.3275647774548450 0.4904489400885019  T  T  T
0.4467151309596925 0.5874795850873306 0.4718220305801639  T  T  T
0.6191307034690553 0.5648774087835173 0.4829437851491041  T  T  T
0.5475401492648626 0.6891063591783043 0.4745290811613139  T  T  T
0.6243146391627917 0.4190760208722165 0.5390791580808038  T  T  T
0.5498927581760431 0.2699197059725389 0.5354016377959877  T  T  T
0.5428623137170135 0.3525334685667119 0.4471931747643358  T  T  T
0.6869542794758081 0.3556069179724134 0.4424566185644754  T  T  T
0.3992277716598870 0.3635645617860578 0.4520094486305022  T  T  T
0.4818005042339492 0.4211848254981898 0.5423200474624186  T  T  T
0.4710463427168440 0.4890161992828349 0.4424158618569252  T  T  T
0.6217305772506956 0.4843349288971561 0.4354282844868525  T  T  T
0.7856138685948689 0.4189644271575135 0.5162982649648026  T  T  T
0.7154156920905633 0.5474455215129486 0.5102622572519953  T  T  T
0.3176546776855511 0.4250525235948153 0.5327247581114533  T  T  T
0.3855170981965551 0.5510727623471903 0.5238576905342062  T  T  T
0.2613025821736019 0.2835216321183680 0.4832867097888657  T  T  T
0.4041432667072399 0.2756192008066995 0.5410565698602595  T  T  T
0.8296471060089834 0.2755006151823959 0.4646495424795164  T  T  T
0.6976190345821520 0.2720972801664031 0.5321046765730293  T  T  T
0.3813628841967442 0.6205842657990215 0.4308790887164937  T  T  T
0.5457433629158736 0.5442573890382199 0.5260718068217585  T  T  T
0.5449397669649466 0.6091376523257046 0.4313938545083359  T  T  T
0.6388975949849496 0.6718808893561194 0.5053567094978209  T  T  T
0.5475071525382199 0.7765480973952379 0.4455363169283283  T  T  T
0.4653315811261791 0.6772479788741519 0.5146288016769534  T  T  T
