 O Si  H Mo  C  O                       
   1.00000000000000     
    21.3948993682999991    0.0000000000000000    0.0000000000000000
     0.0000000000000000   21.3948993682999991    0.0000000000000000
     0.0000000000000000    0.0000000000000000   34.1699981689000012
   O    Si   H    Mo   C 
   237   102    64     1     1
Selective dynamics
Direct
  0.2821674756213852  0.7121430763892391  0.1001940880460523   F   F   F
  0.6115833235628045  0.6250246572434932  0.2027700209234098   F   F   F
  0.1507549443988552  0.3908925512469423  0.0918375987394384   F   F   F
  0.3802201017609903  0.4406683818203163  0.1407687061915937   F   F   F
  0.6765692787383557  0.8484391788818897  0.1346524192215171   F   F   F
  0.1030885607685761  0.4660911194579853  0.3518876556386843   F   F   F
  0.0040556743367830  0.7584485539299450  0.3020550322020341   F   F   F
  0.6591866779403972  0.1439911003731709  0.1957501199944289   F   F   F
  0.2151005321352812  0.9166110115696995  0.2054681518025774   F   F   F
  0.8455786734615032  0.5347798444487566  0.1025755077146115   F   F   F
  0.4118091292375397  0.7686731556744988  0.2078498791144057   F   F   F
  0.5186473157711120  0.5511066439507459  0.2261955308344952   F   F   F
  0.1156370069797248  0.5128960657796142  0.2143642424645265   F   F   F
  0.5970845807593079  0.5060743715108771  0.3407198090998023   F   F   F
  0.4385811409192542  0.6483698742568720  0.2210934222219905   F   F   F
  0.1250743150189990  0.4159298731568839  0.2800592934891100   F   F   F
  0.5213676746731437  0.7383281576150296  0.2350109106215186   F   F   F
  0.3188450743508255  0.9827131570913892  0.1992483192128063   F   F   F
  0.3234212543900412  0.8572269875584624  0.1909504056596205   F   F   F
  0.8127916897578800  0.8748323040670414  0.2736949511089435   F   F   F
  0.9758323634776858  0.2469819469353709  0.3084974674456049   F   F   F
  0.9869145409689608  0.0415048765595927  0.2918938909700017   F   F   F
  0.0041557869560336  0.0208218774197420  0.1754192126509011   F   F   F
  0.0979801692144520  0.2960315411049663  0.1259072892086266   F   F   F
  0.5961482908618834  0.7378218318734326  0.2968164705840479   F   F   F
  0.4252530806439765  0.5865989837895711  0.3384024976650224   F   F   F
  0.8018054898111799  0.3271191018557289  0.1644739992634499   F   F   F
  0.0652939054386366  0.2039054275968155  0.2621109059798528   F   F   F
  0.5209168610627941  0.6891970218026486  0.0867967497755160   F   F   F
  0.1534743233232518  0.6138013788242915  0.2507057647264190   F   F   F
  0.5531405109972738  0.1781497389429205  0.2313926141085290   F   F   F
  0.7190835712723853  0.4127520147393540  0.1915042056471350   F   F   F
  0.5110742549547140  0.9500635025884705  0.1239499799959987   F   F   F
  0.2525040610065332  0.8632248954852884  0.1076874751451271   F   F   F
  0.6278384001295834  0.7481330026736401  0.1744940115385987   F   F   F
  0.7413402000617353  0.9052723555525901  0.0783602890115631   F   F   F
  0.6917453776903457  0.8528590586682796  0.2795156735789561   F   F   F
  0.7211606945492548  0.6806356784981631  0.2010733097823092   F   F   F
  0.2246786285357558  0.2842729160828057  0.1811236450098548   F   F   F
  0.1138427715956212  0.0610860645883307  0.1015879680887224   F   F   F
  0.5658180772861883  0.1852017763979106  0.3207061698776528   F   F   F
  0.7793287050975550  0.6712406885730218  0.3487349477791000   F   F   F
  0.2087012512098525  0.2863296501255661  0.2576988154629802   F   F   F
  0.6151633397835639  0.5362571504107621  0.1289563836313121   F   F   F
  0.3325235238887174  0.4658824724013044  0.2109402648324661   F   F   F
  0.3168455517864999  0.3346713547218911  0.1392369648179326   F   F   F
  0.3025652985811575  0.9718722871369323  0.1224565732077139   F   F   F
  0.4990278494150999  0.5863411084584271  0.1262040817504797   F   F   F
  0.8674601645348190  0.4627829264439711  0.3019381942573034   F   F   F
  0.5911509693904407  0.0656619811872048  0.2934203465796870   F   F   F
  0.4610752293409348  0.1389353674249563  0.1848745912557703   F   F   F
  0.4799429433433815  0.7915249160950211  0.3019860508241905   F   F   F
  0.5166609198790653  0.4153355007215112  0.3144232003692906   F   F   F
  0.0995862656642217  0.8424636899117530  0.3045977164278852   F   F   F
  0.3106340692478824  0.4144237330888316  0.2782360870564276   F   F   F
  0.7810467261645186  0.1296826159728184  0.3400161891293294   F   F   F
  0.4908132671327508  0.7017861672059951  0.1615203834476091   F   F   F
  0.9889654586395622  0.8958828531790104  0.1684235566680954   F   F   F
  0.8835674529941073  0.7369162421427546  0.3342026351688503   F   F   F
  0.6140994882838129  0.5703698597239608  0.2725583756072538   F   F   F
  0.7927588204517164  0.8220247476034075  0.1258586568670736   F   F   F
  0.8870082117273128  0.3369825107524207  0.3107136931703849   F   F   F
  0.8214535883181355  0.4593357780217957  0.1629272536833923   F   F   F
  0.6388995044263694  0.2635834775589032  0.2267541321417497   F   F   F
  0.8980669866067004  0.8156802376746626  0.1612627682561794   F   F   F
  0.8742718337145234  0.0935206748786328  0.2951097088741292   F   F   F
  0.4439340329202821  0.9119933492688190  0.3151328981121324   F   F   F
  0.1066787026891163  0.0595859631026059  0.3072335925319223   F   F   F
  0.0349267602169476  0.4243611212417946  0.2236207650688016   F   F   F
  0.5692456001209720  0.8447806904461501  0.2628701755584757   F   F   F
  0.0035665067248942  0.1310047858018635  0.2128268486468627   F   F   F
  0.2172858875351906  0.2865551969855389  0.1039133748081369   F   F   F
  0.4384139935783011  0.8691153718275046  0.1645938466358885   F   F   F
  0.4124290507578507  0.0067033638946938  0.1521355919884186   F   F   F
  0.1251867805548912  0.1281676957915963  0.2137581139626548   F   F   F
  0.1014742265610451  0.9392739656547704  0.1772076473791913   F   F   F
  0.3035203919685401  0.9022807371399111  0.2598827417858587   F   F   F
  0.3615911327325421  0.7782334363176844  0.1392494000259461   F   F   F
  0.5897776916998296  0.0455348967243410  0.2160824348934938   F   F   F
  0.3179169784217635  0.0860300929793354  0.1510395236986142   F   F   F
  0.4096076032015645  0.3520234916311296  0.2498161317927838   F   F   F
  0.5162662097981325  0.2077456313000923  0.1311698389509743   F   F   F
  0.6963619275807673  0.3277235070448015  0.0615706616488296   F   F   F
  0.8385856513460936  0.7079271977073276  0.1511902270557357   F   F   F
  0.8362168026662715  0.6719115695257756  0.2263533060104663   F   F   F
  0.6205517469194248  0.2579991751818582  0.1059423179005563   F   F   F
  0.3806540883517329  0.7677885001169571  0.0655215858772351   F   F   F
  0.4213514320891534  0.0360965342872248  0.3047765022435485   F   F   F
  0.3150486353378099  0.5461947592714012  0.3142642355041261   F   F   F
  0.2458335829734679  0.1248461504980654  0.2135448586519288   F   F   F
  0.7399956099378215  0.5482117189377362  0.1435815921625547   F   F   F
  0.6300605422218908  0.0595405978398489  0.1428594355893580   F   F   F
  0.8129431671356500  0.9621227654424445  0.2178296283963235   F   F   F
  0.1675602917280088  0.3632696506493289  0.3459664984776367   F   F   F
  0.2415568986917762  0.6954656616076136  0.3152821065673237   F   F   F
  0.0436620871934039  0.7206332925687846  0.1517911439741511   F   F   F
  0.6666775889212104  0.6480233076721760  0.1351892337410305   F   F   F
  0.7072686808447770  0.0238895925949691  0.2001016383641883   F   F   F
  0.6477275732338654  0.8630663778731389  0.2067248671051516   F   F   F
  0.4109038476275728  0.3539322529898214  0.0873821852166827   F   F   F
  0.5194926184434792  0.2622336161455934  0.0600569682946812   F   F   F
  0.9100673273287399  0.8815848016559471  0.2267367307062500   F   F   F
  0.5276197668883853  0.3357200620030270  0.1222116075132718   F   F   F
  0.4042281085266453  0.1580321745568583  0.1168172428840819   F   F   F
  0.7675005832315804  0.7695637699737148  0.2463374628483876   F   F   F
  0.6338682311048913  0.9802132212831438  0.0835202146333742   F   F   F
  0.2152391888765735  0.4711664567032656  0.3222228636005369   F   F   F
  0.0533410582341958  0.6792753679424379  0.2232339602662208   F   F   F
  0.8862585836235013  0.9704237839910306  0.2803144918022440   F   F   F
  0.1851304245830292  0.0307599965586576  0.1799404961664024   F   F   F
  0.3368954446737433  0.0892704407734612  0.2614658357310731   F   F   F
  0.0429731846895436  0.6143029491430170  0.2890250715481173   F   F   F
  0.9185814622890263  0.1098496350349194  0.1590081107540726   F   F   F
  0.4477575836626286  0.1421415658039038  0.2615791594393286   F   F   F
  0.1824712161727220  0.1385999476076734  0.1447224451117535   F   F   F
  0.1323963461911433  0.9887312036813327  0.2444366874221586   F   F   F
  0.3193615705131947  0.8850394591639485  0.3360448604149937   F   F   F
  0.2958481729073128  0.1360629921229801  0.0798645004003475   F   F   F
  0.8643585492517971  0.2709569321216563  0.1074552016476886   F   F   F
  0.8866600244955123  0.7624989366382309  0.0898690409745981   F   F   F
  0.1148699559029893  0.7173180950148037  0.2864799370048630   F   F   F
  0.4754268137639741  0.8384613111210726  0.0935035705828682   F   F   F
  0.4352669160943137  0.0125385341610951  0.0736911180780382   F   F   F
  0.2188185155314954  0.8407439087403716  0.3043727276669657   F   F   F
  0.8083336832055394  0.0602732008537146  0.1676341113235296   F   F   F
  0.9432199436437472  0.6708064689844306  0.1870929112452089   F   F   F
  0.3213486550211897  0.2895566532308749  0.2900567962894840   F   F   F
  0.9165636405936937  0.0507162354627795  0.2273895009717535   F   F   F
  0.8000624588003049  0.5653076972240001  0.3091880272457814   F   F   F
  0.3545757794068862  0.6604126138736390  0.2913844313150022   F   F   F
  0.5019102972232758  0.2934029798742870  0.3334486261849747   F   F   F
  0.6607749306731279  0.1192739759109855  0.3461932900718807   F   F   F
  0.9207997750252446  0.5778166455166271  0.2926113255523646   F   F   F
  0.9714738735772244  0.5498599946942377  0.0992788762351680   F   F   F
  0.5117513090930217  0.9847202199062082  0.2653226977924632   F   F   F
  0.4019879368333434  0.6673746943216372  0.1117467842888686   F   F   F
  0.3833529055853049  0.1450680719840776  0.3279404121433984   F   F   F
  0.4775684155534066  0.3680555683987663  0.1873399142644914   F   F   F
  0.0221053053978864  0.5058676779794880  0.1634445815320476   F   F   F
  0.0820463678729340  0.4933231306540478  0.0956197552913380   F   F   F
  0.2060297487405975  0.5803428559719492  0.1832407508675473   F   F   F
  0.9805833819352898  0.2542148674346265  0.1319319438560456   F   F   F
  0.1952930630137359  0.4890440666694928  0.1299270733905402   F   F   F
  0.3668632078853733  0.8939563270003816  0.0771319400194841   F   F   F
  0.3077923998415883  0.5378286647713963  0.1486031061701070   F   F   F
  0.7424348633292155  0.4036001037376664  0.1152602260744544   F   F   F
  0.1556850684114153  0.6983292259219951  0.1171035690390312   F   F   F
  0.5657368772414699  0.6282242040115023  0.3337112573518510   F   F   F
  0.6165227687251544  0.2957264495616272  0.3015965128360634   F   F   F
  0.4539042626820944  0.2493974321584815  0.2179090630747424   F   F   F
  0.2621753836929628  0.1794973021378965  0.2812076166940756   F   F   F
  0.6866763287273301  0.5917658512226822  0.3335352877583873   F   F   F
  0.5332664503862077  0.3284693325610348  0.2502902919531138   F   F   F
  0.4000325831140117  0.3665576117352671  0.3254804065408123   F   F   F
  0.2993493632836035  0.2112297400110705  0.1403617130783630   F   F   F
  0.6004583948980837  0.3896168787922960  0.1758904248011248   F   F   F
  0.5359186267595533  0.5122137252084471  0.0689286171287904   F   F   F
  0.2382799841468710  0.3915367619507109  0.2184215229411421   F   F   F
  0.6415681198870402  0.3849718483612463  0.2481519031384565   F   F   F
  0.0404712901455753  0.9619786331792213  0.1114263615611719   F   F   F
  0.8513436229484128  0.5857886523683078  0.1718209044132948   F   F   F
  0.6913656787939075  0.5717335326623356  0.0730942571684707   F   F   F
  0.6297182373925168  0.4975442577257496  0.2123270153747896   F   F   F
  0.0714584287048510  0.1744284610597617  0.1160638601249318   F   F   F
  0.9123595548776322  0.2665830113867145  0.3749600808386973   F   F   F
  0.8357707701966035  0.1147712993701191  0.1011921397660700   F   F   F
  0.5003646781400022  0.0795461440911893  0.1223994966420960   F   F   F
  0.6304086712223480  0.9537564334967357  0.2617515894526790   F   F   F
  0.2291717353720273  0.6016599003642682  0.1070115715748088   F   F   F
  0.0652583536212745  0.2289594953978167  0.1864004888402064   F   F   F
  0.7619614156346373  0.9413042254763084  0.1509355829901864   F   F   F
  0.8220265564407185  0.1924135283651793  0.1616016053933365   F   F   F
  0.2210328131930765  0.2565229694140641  0.3327475778467246   F   F   F
  0.0254167154645444  0.1110816481595904  0.3536546885993559   F   F   F
  0.7247734910893939  0.0616702343806708  0.0937610662067030   F   F   F
  0.3050910983198705  0.4139470579776230  0.0787372591505928   F   F   F
  0.7705292669357817  0.7897463658037438  0.3236686099387782   F   F   F
  0.0734383876321232  0.6054479576456302  0.1279718818616402   F   F   F
  0.8578548824357384  0.2153731452828751  0.3146762940028722   F   F   F
  0.1272019716316279  0.3452914245089715  0.2146467882011933   F   F   F
  0.0401661435487597  0.3265873665152270  0.2687750441265706   F   F   F
  0.6587038229894162  0.1630031561075427  0.2714131195580052   F   F   F
  0.2300027727380680  0.5084127355894594  0.2450939993074925   F   F   F
  0.7388038410068773  0.6575609546997896  0.2756963261947760   F   F   F
  0.7418499615378877  0.2503463268179402  0.1165804977906078   F   F   F
  0.0079230378739510  0.4969760246345132  0.3076617995504591   F   F   F
  0.2149486187348870  0.5869230386055335  0.3535888027825536   F   F   F
  0.3215531856728688  0.7833287191622347  0.2863395210577693   F   F   F
  0.0960355121302783  0.2641294429309156  0.3264825477660125   F   F   F
  0.4070299194116842  0.5546857492952739  0.2634598611868242   F   F   F
  0.7374852592305032  0.0177971123210483  0.3541952279625207   F   F   F
  0.4172852115383563  0.5393631959225615  0.1850911925059506   F   F   F
  0.0499804793520582  0.6961229423615904  0.0757193945803678   F   F   F
  0.9963703728685545  0.5402823035273769  0.2348041092364355   F   F   F
  0.5185636641312144  0.4609304050946079  0.1396424589811929   F   F   F
  0.9881447247507680  0.7852486505295602  0.2080975430391092   F   F   F
  0.1705854220556660  0.9536854091523423  0.3125424194748589   F   F   F
  0.5581643291285516  0.8435564369987461  0.1518949472547249   F   F   F
  0.2205317652167693  0.0585245073297074  0.2788669285611292   F   F   F
  0.3423515571878539  0.7286545582274826  0.3558534575191103   F   F   F
  0.2860399071511708  0.4958884376402537  0.3838818518593499   F   F   F
  0.4798434415800017  0.3827459130886837  0.3854276232720508   F   F   F
  0.1501419642632627  0.2727259951175185  0.3966353840914820   F   F   F
  0.6027883051860456  0.2625327060095941  0.3767299709006906   F   F   F
  0.7273695890256491  0.1036779953943352  0.4106806374942167   F   F   F
  0.9000251679814468  0.1331946149814058  0.3672028180314371   F   F   F
  0.8139221722850465  0.7662768243474432  0.3953434329436902   F   F   F
  0.8821212543484762  0.5382625871057627  0.3639935113134527   F   F   F
  0.8670604899125678  0.4082854280100250  0.3718353188562489   F   F   F
  0.7725189885432826  0.3903714033285226  0.3177095240399552   F   F   F
  0.0085008991315192  0.5365623058841393  0.3799481724003684   F   F   F
  0.9950424856888205  0.4115848028764191  0.3657606040634391   F   F   F
  0.5442443010717923  0.8643179098811800  0.3519108991635349   F   F   F
  0.0957120561222240  0.7584149531210187  0.3593798044661938   F   F   F
  0.1557741500157519  0.8788965084139022  0.3709723325790719   F   F   F
  0.0346620037174077  0.9823914337626078  0.3511437208932335   F   F   F
  0.4295729754199442  0.8231628932451400  0.3703757093648221   F   F   F
  0.5212276624223549  0.9916609071667466  0.3447260613545922   F   F   F
  0.6592753664962316  0.4446933124976979  0.0612344724609670   F   F   F
  0.7762530334809767  0.4204669510342569  0.0404544894913315   F   F   F
  0.6870406565737426  0.2036478288732368  0.0520666844886861   F   F   F
  0.1276969299717337  0.2887296196689277  0.0496179591305577   F   F   F
  0.1800927074014851  0.4937138754208945  0.0507471086146012   F   F   F
  0.4351292692693889  0.8535724831180360  0.0194822568943565   F   F   F
  0.2050157824201264  0.6783310329093837  0.0457216998746546   F   F   F
  0.2665072958737795  0.9499967281422670  0.0494797789350230   F   F   F
  0.9000796249231868  0.5831923116413549  0.0390825662195269   F   F   F
  0.9081303493262922  0.4615174961775850  0.0575450417388126   F   F   F
  0.8217873721119275  0.0087625894966195  0.0575448720128051   F   F   F
  0.7809817023714913  0.1219832746209448  0.0338527714293093   F   F   F
  0.1689077944330535  0.1623915683510333  0.0685564877054432   F   F   F
  0.0269907929633604  0.0289423966870075  0.0461375550605680   F   F   F
  0.1322962145721363  0.9662501442660769  0.0556339662603094   F   F   F
  0.9529533507426180  0.2793498280137783  0.0556512060170817   F   F   F
  0.9454363323237658  0.3677968758034638  0.1132772214616793   F   F   F
  0.6126941821256295  0.1021880997079947  0.0689352670866370   F   F   F
  0.5124254922340867  0.6320441652072262  0.4639243595537934   T   T   T
  0.3535504220321428  0.3857191144660419  0.1120666583672758   F   F   F
  0.2173704966995516  0.6728159169678634  0.0927521126116275   F   F   F
  0.3150672333497937  0.7178303047272863  0.3109004483142996   F   F   F
  0.3566588084605229  0.7280755442994078  0.1041260280528036   F   F   F
  0.2928490679734139  0.8536985153607191  0.2962784922411714   F   F   F
  0.4454142236730974  0.5730824155664038  0.2239892455083989   F   F   F
  0.3976499900590653  0.1037229538338025  0.2887409471307478   F   F   F
  0.6283801492041903  0.1874184173052527  0.2300061054519134   F   F   F
  0.9168817423906290  0.0396418502393630  0.2746108157140554   F   F   F
  0.0768365634458519  0.7706684155130716  0.3129316103236164   F   F   F
  0.8109942034448849  0.7411484980111069  0.3503803720926442   F   F   F
  0.8147492499227340  0.5316537864005966  0.1464687366125119   F   F   F
  0.4137632562601965  0.8371008120446959  0.0640637589527060   F   F   F
  0.5314171354325410  0.3904758789942449  0.1560305366948214   F   F   F
  0.4731756796577002  0.3641274284040890  0.3392961935636833   F   F   F
  0.6545218346616721  0.6767212169445287  0.1789336612818531   F   F   F
  0.4659461087409440  0.7147744983850615  0.2062885063898960   F   F   F
  0.7728177010392372  0.3986921726024377  0.1586160291871082   F   F   F
  0.8529760097741530  0.7770145885273436  0.1323561087032203   F   F   F
  0.8555934154962230  0.9224283164925993  0.2486549881283722   F   F   F
  0.8685988660282717  0.5359340502321501  0.3165088615515401   F   F   F
  0.6191539818023202  0.1333667261481466  0.3078230104500577   F   F   F
  0.7737327497921456  0.9968409497392869  0.1835135037454165   F   F   F
  0.5939553682468812  0.5614005091200411  0.2270822221315498   F   F   F
  0.6164671459844513  0.5737568978822480  0.3194105430798899   F   F   F
  0.9613481817677894  0.0773456998345807  0.1929766717300367   F   F   F
  0.3292931496787475  0.1473285288294548  0.1230799200163446   F   F   F
  0.2904188939613945  0.9151939655264911  0.2137630826834496   F   F   F
  0.7436953840934137  0.8802938882696978  0.1240162327766470   F   F   F
  0.7657668673121307  0.6949742258257601  0.2380054940096130   F   F   F
  0.9471340779090056  0.8451510371514530  0.1920970928777450   F   F   F
  0.7269147618000389  0.0920026584663418  0.3632987589457599   F   F   F
  0.1606501483334526  0.8801931001643197  0.3231478957602150   F   F   F
  0.0770022157665196  0.0052517683309787  0.0791950020314189   F   F   F
  0.4678533587069822  0.3231774398953746  0.2254406419309234   F   F   F
  0.0451945581004765  0.2600264185866408  0.2914524856935188   F   F   F
  0.4782902317924567  0.1771293377236134  0.2242801068800659   F   F   F
  0.2004189907211469  0.3262771643362754  0.2174278540256225   F   F   F
  0.0911623581356267  0.6557001740012893  0.2617994421116592   F   F   F
  0.1343522017155010  0.1336723450049604  0.1073305187576565   F   F   F
  0.0422605069634230  0.4959198456427458  0.2085837148775909   F   F   F
  0.3839179435497755  0.8187313248615524  0.1765570038253159   F   F   F
  0.4734855250472307  0.9813664491594523  0.3070789580621849   F   F   F
  0.6347995116221767  0.8787349146091898  0.2529194548189153   F   F   F
  0.2647943636113652  0.2790231420802201  0.1407160536546783   F   F   F
  0.6492191462667023  0.0531900110901660  0.0967456958008626   F   F   F
  0.5818402430133958  0.0122874956801695  0.2586754451840321   F   F   F
  0.1533362991623477  0.4661546771487579  0.0921176686784690   F   F   F
  0.5417857945374678  0.5243941258798657  0.1158614517148777   F   F   F
  0.4648558608103031  0.0121515762640385  0.1177760510119228   F   F   F
  0.8082355041479516  0.2603934357532012  0.1387916210412143   F   F   F
  0.6878822946316490  0.2609161745775452  0.0837605703994271   F   F   F
  0.5708848347522562  0.2591776481902315  0.3332959806669535   F   F   F
  0.4747194676419753  0.8468314140570001  0.3355112724308071   F   F   F
  0.0649690568387982  0.1734668089921598  0.2187836966906147   F   F   F
  0.1582066545227434  0.0157097095925423  0.2860209177461712   F   F   F
  0.8447952867619932  0.1207541993833132  0.1485671172704883   F   F   F
  0.9926128383771982  0.5581687481773017  0.2809442418985384   F   F   F
  0.2956848831057783  0.9183122734810496  0.0888560066121897   F   F   F
  0.8533182364439966  0.1421472861986715  0.3288577946686644   F   F   F
  0.2575472953915607  0.5260286893828194  0.3434525180890873   F   F   F
  0.0332751233567095  0.9553915599066372  0.1588573982129375   F   F   F
  0.1591859673669660  0.9681974940361044  0.2018505148018619   F   F   F
  0.2648654634926118  0.1122692369299827  0.2591311299792238   F   F   F
  0.0378283295013517  0.5386118456858568  0.1217081679712564   F   F   F
  0.7909566406567947  0.0746621341255178  0.0718728477163850   F   F   F
  0.3588578443505739  0.3560977676642239  0.2854845710064282   F   F   F
  0.0810321525396205  0.6802080839169378  0.1188087901605286   F   F   F
  0.1848902939254202  0.1058452070558928  0.1878120389722113   F   F   F
  0.2763570569272247  0.4470547341931663  0.2398676033630238   F   F   F
  0.1487768584212859  0.3155943795533673  0.0925152160302858   F   F   F
  0.5411980586133325  0.7765362513903185  0.2747590435590510   F   F   F
  0.2535842025898276  0.2529599364577422  0.2899264718343275   F   F   F
  0.7197148136245772  0.3991835219263891  0.0696166041729995   F   F   F
  0.8678586629956513  0.6584899569748117  0.1835414629911725   F   F   F
  0.4960909449724156  0.8756881918372130  0.1338284130573371   F   F   F
  0.3754373553238537  0.5879609788741860  0.3021516566381166   F   F   F
  0.6483323569640262  0.4237621334004942  0.2065515075802082   F   F   F
  0.8475198377526141  0.3983321121019188  0.3248774942564623   F   F   F
  0.7605787485334616  0.8216764038826909  0.2809709532211997   F   F   F
  0.6275252249100589  0.8242274679981207  0.1676960405995374   F   F   F
  0.6089024566547110  0.3172250283145317  0.2559276743656156   F   F   F
  0.4718017350211099  0.1464959913797657  0.1378459315264138   F   F   F
  0.5454248764147707  0.2650861414983794  0.1048268622493467   F   F   F
  0.4779120702638764  0.6598066716348328  0.1218133780895627   F   F   F
  0.0283815689245586  0.4760995423582699  0.3517121795319440   F   F   F
  0.9094002414110065  0.2684381959874216  0.3265738637144935   F   F   F
  0.0379291700648849  0.0489089243884422  0.3272442251084087   F   F   F
  0.3369082422604635  0.0122080597087333  0.1565176562440840   F   F   F
  0.3595321920812680  0.4955501402404181  0.1710162668009261   F   F   F
  0.1574327507235793  0.2883246102639845  0.3501741061768939   F   F   F
  0.1527723164232455  0.4288510356623334  0.3241215055983204   F   F   F
  0.6786966646482071  0.5761578025013208  0.1206858968759121   F   F   F
  0.2340757295706837  0.5518030000027565  0.1424075607619315   F   F   F
  0.1773352701316213  0.5537563609878120  0.2242780388546493   F   F   F
  0.0058411878887412  0.7144084706344742  0.1933197632123935   F   F   F
  0.7514141985300640  0.6220549979307677  0.3169575927949282   F   F   F
  0.9366655674629527  0.2941803392890563  0.1017243148290703   F   F   F
  0.6480947636988290  0.0681764380359624  0.1882237779063232   F   F   F
  0.0825392950881607  0.3786778036726872  0.2472277612549121   F   F   F
  0.9078177237018110  0.5339869613665584  0.0754367206043938   F   F   F
  0.0535995627718009  0.2388406485159891  0.1398645503926375   F   F   F
  0.7323833242441680  0.5838503572182034  0.0635065999821549   F   F   F
  0.5649449135831119  0.4808488554165251  0.0587420863074186   F   F   F
  0.3242503950048174  0.4140771904003628  0.0529550989371899   F   F   F
  0.4526117867923318  0.3532287490138586  0.0993472569785681   F   F   F
  0.4652199521467395  0.6078773476821411  0.3351343941703817   F   F   F
  0.5614179237700583  0.6300111177379435  0.3632832665296064   F   F   F
  0.5698109304215819  0.4738969368995498  0.3280449733200896   F   F   F
  0.2072807232750691  0.7153682459357213  0.3010363354987078   F   F   F
  0.3114564868447047  0.7308456053436387  0.3766103240425664   F   F   F
  0.2222706828874763  0.6254777056068974  0.3382816755212588   F   F   F
  0.2753404465498477  0.4526942275743338  0.3891297459736478   F   F   F
  0.5238952516217310  0.4022768159981993  0.2873251437816222   F   F   F
  0.4527235407972299  0.4149141190707226  0.3960971878092607   F   F   F
  0.1361795525675191  0.2310099816240836  0.4034794523384733   F   F   F
  0.5841844702433932  0.7003090369135947  0.3117901997141956   F   F   F
  0.5878612618532912  0.2947223580045701  0.3944204175233068   F   F   F
  0.3791765847832878  0.1899232314498107  0.3246689038532580   F   F   F
  0.7034991190961364  0.1390119204080236  0.4203139567317962   F   F   F
  0.9025143642533280  0.1709195584146599  0.3834390071277056   F   F   F
  0.8974211793530387  0.6968200973471639  0.3240028339171488   F   F   F
  0.7762702388042086  0.7840479589517102  0.4064804613329756   F   F   F
  0.9254902167098038  0.5452438367433103  0.3729659343313543   F   F   F
  0.7525272016916773  0.3502137530128024  0.3217237721249759   F   F   F
  0.8612138019358326  0.4518915332833089  0.3803079387722477   F   F   F
  0.0261287521245350  0.5380124861072062  0.4061069148197944   F   F   F
  0.9490445348997554  0.4110855704642233  0.3696198970286559   F   F   F
  0.9684769343843413  0.7732591744790014  0.3173328658245396   F   F   F
  0.0964865458809854  0.7154104460866009  0.3684032437097429   F   F   F
  0.1387039615631522  0.8395562778869632  0.3808351308877818   F   F   F
  0.9812660011214049  0.1182577486271299  0.3607802405342468   F   F   F
  0.0675510795534748  0.9722402635362641  0.3696757384649416   F   F   F
  0.5500483144443891  0.9092138831260215  0.3564107931701699   F   F   F
  0.3985287512941227  0.7901166711769747  0.3653365997950999   F   F   F
  0.3615129326575897  0.9026266642123701  0.3352370910290148   F   F   F
  0.7194684795220496  0.9873148623958627  0.3718621956211905   F   F   F
  0.5507641410607604  0.0258951090707100  0.3412510724102731   F   F   F
  0.9389518869223892  0.2968074857663439  0.3880894998317928   F   F   F
  0.8189509747440269  0.4256811039445552  0.0498809167654883   F   F   F
  0.6708761181943856  0.4892168314266314  0.0594891135935214   F   F   F
  0.7257488690711043  0.1828331414210993  0.0431028041972681   F   F   F
  0.3114028786081562  0.1007921445404989  0.0647352962214995   F   F   F
  0.1395347440735790  0.2445483269043720  0.0466654502020134   F   F   F
  0.2237574876618140  0.4841135793189792  0.0458041844584542   F   F   F
  0.2550792963281481  0.8201618764004905  0.0989581078004349   F   F   F
  0.4767349937064722  0.2753409447997228  0.0550552453940441   F   F   F
  0.4553977127690416  0.8216589075122940  0.0038845522710957   F   F   F
  0.1628781725546276  0.6707786943788605  0.0363361067388439   F   F   F
  0.4145699385461441  0.9742432939450936  0.0650732710536204   F   F   F
  0.0133139936732434  0.7229380244624366  0.0765981894099355   F   F   F
  0.8774704811647425  0.7924038753293132  0.0693008530741110   F   F   F
  0.7021178129298136  0.9290125405014322  0.0739338828060525   F   F   F
  0.5239940778259538  0.7345642881170846  0.0864664267547397   F   F   F
  0.2217356713875702  0.9602820251415594  0.0509967196305325   F   F   F
  0.9272985924284853  0.6194486989436712  0.0393087191460495   F   F   F
  0.9332906567677242  0.4543713908859388  0.0342820015962104   F   F   F
  0.5952004711812791  0.9626284258681608  0.0941526294921644   F   F   F
  0.7980467910171782  0.9705574926141267  0.0641091241893719   F   F   F
  0.7800741482464986  0.1025209405550669  0.0082306566530903   F   F   F
  0.2148081156596859  0.1564929460690863  0.0684758302156538   F   F   F
  0.9842811337070785  0.0369735626500329  0.0542779591594424   F   F   F
  0.9964994662266875  0.2828678240094433  0.0477668839867249   F   F   F
  0.9317622114137620  0.3988937347649255  0.0940581280339998   F   F   F
  0.1173249592683803  0.9354942163932947  0.0369613370361606   F   F   F
  0.6352148199365999  0.1408116334860168  0.0613888091481414   F   F   F
  0.5642494494824675  0.5375343073078014  0.4014210231397826   T   T   T
  0.5319446382232869  0.5945807672045476  0.4416637040814777   T   T   T
 
             NaN             NaN             NaN