 O Si  H Mo  C  O                       
   1.00000000000000     
    21.3948993682999991    0.0000000000000000    0.0000000000000000
     0.0000000000000000   21.3948993682999991    0.0000000000000000
     0.0000000000000000    0.0000000000000000   34.1699981689000012
   O    Si   H    Mo   C 
   237   102    64     1     1
Selective
Direct
0.2821674756213869 0.7121430763892361 0.1001940880460498  F  F  F
0.6115833235628071 0.6250246572434925 0.2027700209234130  F  F  F
0.1507549443988556 0.3908925512469442 0.0918375987394415  F  F  F
0.3802201017609885 0.4406683818203196 0.1407687061915953  F  F  F
0.6765692787383533 0.8484391788818905 0.1346524192215165  F  F  F
0.1030885607685782 0.4660911194579878 0.3518876556386858  F  F  F
0.0040556743367820 0.7584485539299426 0.3020550322020344  F  F  F
0.6591866779404004 0.1439911003731701 0.1957501199944316  F  F  F
0.2151005321352837 0.9166110115697024 0.2054681518025753  F  F  F
0.8455786734615007 0.5347798444487556 0.1025755077146088  F  F  F
0.4118091292375388 0.7686731556744988 0.2078498791144087  F  F  F
0.5186473157711108 0.5511066439507489 0.2261955308344933  F  F  F
0.1156370069797246 0.5128960657796124 0.2143642424645245  F  F  F
0.5970845807593088 0.5060743715108774 0.3407198090998018  F  F  F
0.4385811409192549 0.6483698742568715 0.2210934222219920  F  F  F
0.1250743150190004 0.4159298731568865 0.2800592934891096  F  F  F
0.5213676746731447 0.7383281576150306 0.2350109106215200  F  F  F
0.3188450743508274 0.9827131570913858 0.1992483192128084  F  F  F
0.3234212543900429 0.8572269875584617 0.1909504056596222  F  F  F
0.8127916897578777 0.8748323040670439 0.2736949511089425  F  F  F
0.9758323634776886 0.2469819469353693 0.3084974674456043  F  F  F
0.9869145409689576 0.0415048765595920 0.2918938909699997  F  F  F
0.0041557869560351 0.0208218774197410 0.1754192126508988  F  F  F
0.0979801692144517 0.2960315411049644 0.1259072892086266  F  F  F
0.5961482908618837 0.7378218318734328 0.2968164705840447  F  F  F
0.4252530806439737 0.5865989837895742 0.3384024976650201  F  F  F
0.8018054898111819 0.3271191018557317 0.1644739992634521  F  F  F
0.0652939054386337 0.2039054275968143 0.2621109059798499  F  F  F
0.5209168610627936 0.6891970218026485 0.0867967497755190  F  F  F
0.1534743233232526 0.6138013788242903 0.2507057647264190  F  F  F
0.5531405109972753 0.1781497389429179 0.2313926141085325  F  F  F
0.7190835712723853 0.4127520147393505 0.1915042056471379  F  F  F
0.5110742549547147 0.9500635025884681 0.1239499799959978  F  F  F
0.2525040610065361 0.8632248954852867 0.1076874751451302  F  F  F
0.6278384001295866 0.7481330026736385 0.1744940115385986  F  F  F
0.7413402000617353 0.9052723555525893 0.0783602890115615  F  F  F
0.6917453776903425 0.8528590586682790 0.2795156735789527  F  F  F
0.7211606945492567 0.6806356784981665 0.2010733097823119  F  F  F
0.2246786285357526 0.2842729160828079 0.1811236450098551  F  F  F
0.1138427715956216 0.0610860645883292 0.1015879680887194  F  F  F
0.5658180772861894 0.1852017763979129 0.3207061698776514  F  F  F
0.7793287050975581 0.6712406885730205 0.3487349477791014  F  F  F
0.2087012512098556 0.2863296501255677 0.2576988154629801  F  F  F
0.6151633397835653 0.5362571504107635 0.1289563836313122  F  F  F
0.3325235238887158 0.4658824724013025 0.2109402648324626  F  F  F
0.3168455517864966 0.3346713547218899 0.1392369648179302  F  F  F
0.3025652985811558 0.9718722871369345 0.1224565732077138  F  F  F
0.4990278494151005 0.5863411084584239 0.1262040817504811  F  F  F
0.8674601645348190 0.4627829264439725 0.3019381942573042  F  F  F
0.5911509693904433 0.0656619811872081 0.2934203465796872  F  F  F
0.4610752293409381 0.1389353674249563 0.1848745912557718  F  F  F
0.4799429433433831 0.7915249160950208 0.3019860508241908  F  F  F
0.5166609198790633 0.4153355007215118 0.3144232003692917  F  F  F
0.0995862656642214 0.8424636899117532 0.3045977164278837  F  F  F
0.3106340692478810 0.4144237330888343 0.2782360870564259  F  F  F
0.7810467261645170 0.1296826159728174 0.3400161891293295  F  F  F
0.4908132671327517 0.7017861672059985 0.1615203834476115  F  F  F
0.9889654586395605 0.8958828531790095 0.1684235566680965  F  F  F
0.8835674529941089 0.7369162421427564 0.3342026351688479  F  F  F
0.6140994882838158 0.5703698597239608 0.2725583756072512  F  F  F
0.7927588204517179 0.8220247476034043 0.1258586568670726  F  F  F
0.8870082117273120 0.3369825107524189 0.3107136931703864  F  F  F
0.8214535883181332 0.4593357780217961 0.1629272536833926  F  F  F
0.6388995044263711 0.2635834775589055 0.2267541321417493  F  F  F
0.8980669866066983 0.8156802376746648 0.1612627682561827  F  F  F
0.8742718337145249 0.0935206748786342 0.2951097088741271  F  F  F
0.4439340329202837 0.9119933492688189 0.3151328981121332  F  F  F
0.1066787026891172 0.0595859631026083 0.3072335925319220  F  F  F
0.0349267602169441 0.4243611212417925 0.2236207650688010  F  F  F
0.5692456001209754 0.8447806904461530 0.2628701755584768  F  F  F
0.0035665067248955 0.1310047858018648 0.2128268486468642  F  F  F
0.2172858875351875 0.2865551969855355 0.1039133748081401  F  F  F
0.4384139935783005 0.8691153718275054 0.1645938466358859  F  F  F
0.4124290507578505 0.0067033638946937 0.1521355919884208  F  F  F
0.1251867805548919 0.1281676957915959 0.2137581139626572  F  F  F
0.1014742265610439 0.9392739656547671 0.1772076473791924  F  F  F
0.3035203919685377 0.9022807371399133 0.2598827417858595  F  F  F
0.3615911327325403 0.7782334363176832 0.1392494000259475  F  F  F
0.5897776916998295 0.0455348967243434 0.2160824348934907  F  F  F
0.3179169784217654 0.0860300929793362 0.1510395236986126  F  F  F
0.4096076032015643 0.3520234916311294 0.2498161317927870  F  F  F
0.5162662097981333 0.2077456313000911 0.1311698389509715  F  F  F
0.6963619275807680 0.3277235070448018 0.0615706616488278  F  F  F
0.8385856513460950 0.7079271977073309 0.1511902270557383  F  F  F
0.8362168026662712 0.6719115695257725 0.2263533060104639  F  F  F
0.6205517469194218 0.2579991751818547 0.1059423179005542  F  F  F
0.3806540883517320 0.7677885001169572 0.0655215858772367  F  F  F
0.4213514320891556 0.0360965342872252 0.3047765022435453  F  F  F
0.3150486353378096 0.5461947592714009 0.3142642355041280  F  F  F
0.2458335829734649 0.1248461504980678 0.2135448586519295  F  F  F
0.7399956099378219 0.5482117189377372 0.1435815921625550  F  F  F
0.6300605422218939 0.0595405978398516 0.1428594355893605  F  F  F
0.8129431671356506 0.9621227654424412 0.2178296283963254  F  F  F
0.1675602917280117 0.3632696506493283 0.3459664984776381  F  F  F
0.2415568986917785 0.6954656616076117 0.3152821065673214  F  F  F
0.0436620871934010 0.7206332925687869 0.1517911439741542  F  F  F
0.6666775889212105 0.6480233076721784 0.1351892337410280  F  F  F
0.7072686808447798 0.0238895925949716 0.2001016383641853  F  F  F
0.6477275732338668 0.8630663778731357 0.2067248671051534  F  F  F
0.4109038476275739 0.3539322529898242 0.0873821852166807  F  F  F
0.5194926184434814 0.2622336161455967 0.0600569682946796  F  F  F
0.9100673273287414 0.8815848016559490 0.2267367307062477  F  F  F
0.5276197668883852 0.3357200620030268 0.1222116075132700  F  F  F
0.4042281085266438 0.1580321745568611 0.1168172428840840  F  F  F
0.7675005832315778 0.7695637699737171 0.2463374628483851  F  F  F
0.6338682311048948 0.9802132212831405 0.0835202146333775  F  F  F
0.2152391888765721 0.4711664567032626 0.3222228636005335  F  F  F
0.0533410582341931 0.6792753679424396 0.2232339602662201  F  F  F
0.8862585836234986 0.9704237839910271 0.2803144918022415  F  F  F
0.1851304245830266 0.0307599965586598 0.1799404961664024  F  F  F
0.3368954446737441 0.0892704407734578 0.2614658357310764  F  F  F
0.0429731846895428 0.6143029491430161 0.2890250715481171  F  F  F
0.9185814622890233 0.1098496350349219 0.1590081107540703  F  F  F
0.4477575836626299 0.1421415658039019 0.2615791594393270  F  F  F
0.1824712161727192 0.1385999476076724 0.1447224451117524  F  F  F
0.1323963461911407 0.9887312036813335 0.2444366874221596  F  F  F
0.3193615705131947 0.8850394591639460 0.3360448604149902  F  F  F
0.2958481729073150 0.1360629921229791 0.0798645004003504  F  F  F
0.8643585492517970 0.2709569321216585 0.1074552016476875  F  F  F
0.8866600244955157 0.7624989366382340 0.0898690409745949  F  F  F
0.1148699559029863 0.7173180950148063 0.2864799370048645  F  F  F
0.4754268137639752 0.8384613111210756 0.0935035705828690  F  F  F
0.4352669160943120 0.0125385341610983 0.0736911180780415  F  F  F
0.2188185155314975 0.8407439087403746 0.3043727276669652  F  F  F
0.8083336832055396 0.0602732008537118 0.1676341113235286  F  F  F
0.9432199436437504 0.6708064689844311 0.1870929112452090  F  F  F
0.3213486550211904 0.2895566532308755 0.2900567962894834  F  F  F
0.9165636405936914 0.0507162354627780 0.2273895009717539  F  F  F
0.8000624588003070 0.5653076972239970 0.3091880272457782  F  F  F
0.3545757794068830 0.6604126138736381 0.2913844313150010  F  F  F
0.5019102972232761 0.2934029798742877 0.3334486261849748  F  F  F
0.6607749306731244 0.1192739759109891 0.3461932900718796  F  F  F
0.9207997750252425 0.5778166455166260 0.2926113255523657  F  F  F
0.9714738735772259 0.5498599946942391 0.0992788762351677  F  F  F
0.5117513090930234 0.9847202199062085 0.2653226977924635  F  F  F
0.4019879368333419 0.6673746943216353 0.1117467842888692  F  F  F
0.3833529055853042 0.1450680719840811 0.3279404121433993  F  F  F
0.4775684155534071 0.3680555683987652 0.1873399142644941  F  F  F
0.0221053053978850 0.5058676779794908 0.1634445815320484  F  F  F
0.0820463678729304 0.4933231306540460 0.0956197552913411  F  F  F
0.2060297487405986 0.5803428559719457 0.1832407508675487  F  F  F
0.9805833819352916 0.2542148674346244 0.1319319438560452  F  F  F
0.1952930630137374 0.4890440666694931 0.1299270733905421  F  F  F
0.3668632078853709 0.8939563270003784 0.0771319400194873  F  F  F
0.3077923998415857 0.5378286647713938 0.1486031061701089  F  F  F
0.7424348633292170 0.4036001037376646 0.1152602260744569  F  F  F
0.1556850684114167 0.6983292259219963 0.1171035690390319  F  F  F
0.5657368772414711 0.6282242040115058 0.3337112573518543  F  F  F
0.6165227687251544 0.2957264495616286 0.3015965128360656  F  F  F
0.4539042626820970 0.2493974321584828 0.2179090630747459  F  F  F
0.2621753836929641 0.1794973021378966 0.2812076166940724  F  F  F
0.6866763287273300 0.5917658512226857 0.3335352877583882  F  F  F
0.5332664503862073 0.3284693325610352 0.2502902919531130  F  F  F
0.4000325831140142 0.3665576117352647 0.3254804065408146  F  F  F
0.2993493632836051 0.2112297400110721 0.1403617130783617  F  F  F
0.6004583948980865 0.3896168787922985 0.1758904248011272  F  F  F
0.5359186267595508 0.5122137252084505 0.0689286171287902  F  F  F
0.2382799841468716 0.3915367619507120 0.2184215229411430  F  F  F
0.6415681198870438 0.3849718483612435 0.2481519031384530  F  F  F
0.0404712901455755 0.9619786331792241 0.1114263615611721  F  F  F
0.8513436229484102 0.5857886523683056 0.1718209044132916  F  F  F
0.6913656787939050 0.5717335326623336 0.0730942571684699  F  F  F
0.6297182373925145 0.4975442577257521 0.2123270153747876  F  F  F
0.0714584287048498 0.1744284610597631 0.1160638601249344  F  F  F
0.9123595548776333 0.2665830113867136 0.3749600808386940  F  F  F
0.8357707701966026 0.1147712993701221 0.1011921397660686  F  F  F
0.5003646781400005 0.0795461440911912 0.1223994966420982  F  F  F
0.6304086712223480 0.9537564334967348 0.2617515894526787  F  F  F
0.2291717353720277 0.6016599003642717 0.1070115715748075  F  F  F
0.0652583536212738 0.2289594953978144 0.1864004888402050  F  F  F
0.7619614156346377 0.9413042254763061 0.1509355829901861  F  F  F
0.8220265564407152 0.1924135283651781 0.1616016053933345  F  F  F
0.2210328131930760 0.2565229694140663 0.3327475778467263  F  F  F
0.0254167154645413 0.1110816481595873 0.3536546885993541  F  F  F
0.7247734910893904 0.0616702343806739 0.0937610662067042  F  F  F
0.3050910983198676 0.4139470579776245 0.0787372591505899  F  F  F
0.7705292669357785 0.7897463658037465 0.3236686099387807  F  F  F
0.0734383876321227 0.6054479576456304 0.1279718818616403  F  F  F
0.8578548824357405 0.2153731452828772 0.3146762940028688  F  F  F
0.1272019716316310 0.3452914245089692 0.2146467882011918  F  F  F
0.0401661435487583 0.3265873665152247 0.2687750441265736  F  F  F
0.6587038229894152 0.1630031561075393 0.2714131195580047  F  F  F
0.2300027727380697 0.5084127355894610 0.2450939993074915  F  F  F
0.7388038410068750 0.6575609546997865 0.2756963261947775  F  F  F
0.7418499615378912 0.2503463268179419 0.1165804977906071  F  F  F
0.0079230378739520 0.4969760246345161 0.3076617995504602  F  F  F
0.2149486187348840 0.5869230386055354 0.3535888027825527  F  F  F
0.3215531856728678 0.7833287191622362 0.2863395210577721  F  F  F
0.0960355121302800 0.2641294429309141 0.3264825477660102  F  F  F
0.4070299194116868 0.5546857492952706 0.2634598611868210  F  F  F
0.7374852592305041 0.0177971123210467 0.3541952279625191  F  F  F
0.4172852115383572 0.5393631959225583 0.1850911925059494  F  F  F
0.0499804793520547 0.6961229423615901 0.0757193945803709  F  F  F
0.9963703728685511 0.5402823035273756 0.2348041092364329  F  F  F
0.5185636641312175 0.4609304050946053 0.1396424589811951  F  F  F
0.9881447247507693 0.7852486505295571 0.2080975430391069  F  F  F
0.1705854220556671 0.9536854091523395 0.3125424194748581  F  F  F
0.5581643291285505 0.8435564369987432 0.1518949472547217  F  F  F
0.2205317652167711 0.0585245073297093 0.2788669285611295  F  F  F
0.3423515571878547 0.7286545582274834 0.3558534575191130  F  F  F
0.2860399071511737 0.4958884376402536 0.3838818518593520  F  F  F
0.4798434415800041 0.3827459130886837 0.3854276232720484  F  F  F
0.1501419642632648 0.2727259951175195 0.3966353840914796  F  F  F
0.6027883051860466 0.2625327060095974 0.3767299709006894  F  F  F
0.7273695890256459 0.1036779953943358 0.4106806374942182  F  F  F
0.9000251679814486 0.1331946149814089 0.3672028180314392  F  F  F
0.8139221722850463 0.7662768243474462 0.3953434329436929  F  F  F
0.8821212543484798 0.5382625871057639 0.3639935113134539  F  F  F
0.8670604899125701 0.4082854280100279 0.3718353188562505  F  F  F
0.7725189885432835 0.3903714033285194 0.3177095240399586  F  F  F
0.0085008991315225 0.5365623058841419 0.3799481724003712  F  F  F
0.9950424856888203 0.4115848028764210 0.3657606040634381  F  F  F
0.5442443010717908 0.8643179098811787 0.3519108991635314  F  F  F
0.0957120561222269 0.7584149531210184 0.3593798044661960  F  F  F
0.1557741500157520 0.8788965084138994 0.3709723325790735  F  F  F
0.0346620037174089 0.9823914337626105 0.3511437208932355  F  F  F
0.4295729754199443 0.8231628932451400 0.3703757093648216  F  F  F
0.5212276624223553 0.9916609071667489 0.3447260613545889  F  F  F
0.6592753664962336 0.4446933124976989 0.0612344724609658  F  F  F
0.7762530334809800 0.4204669510342549 0.0404544894913292  F  F  F
0.6870406565737409 0.2036478288732375 0.0520666844886827  F  F  F
0.1276969299717310 0.2887296196689293 0.0496179591305585  F  F  F
0.1800927074014865 0.4937138754208955 0.0507471086146017  F  F  F
0.4351292692693919 0.8535724831180340 0.0194822568943543  F  F  F
0.2050157824201244 0.6783310329093820 0.0457216998746536  F  F  F
0.2665072958737764 0.9499967281422705 0.0494797789350251  F  F  F
0.9000796249231878 0.5831923116413582 0.0390825662195249  F  F  F
0.9081303493262892 0.4615174961775836 0.0575450417388098  F  F  F
0.8217873721119303 0.0087625894966230 0.0575448720128040  F  F  F
0.7809817023714909 0.1219832746209445 0.0338527714293114  F  F  F
0.1689077944330556 0.1623915683510345 0.0685564877054439  F  F  F
0.0269907929633615 0.0289423966870043 0.0461375550605657  F  F  F
0.1322962145721362 0.9662501442660746 0.0556339662603080  F  F  F
0.9529533507426197 0.2793498280137765 0.0556512060170791  F  F  F
0.9454363323237682 0.3677968758034635 0.1132772214616778  F  F  F
0.6126941821256293 0.1021880997079962 0.0689352670866341  F  F  F
0.5124254922340867 0.6320441652072255 0.4639243595537953  T  T  T
0.3535504220321393 0.3857191144660436 0.1120666583672731  F  F  F
0.2173704966995489 0.6728159169678666 0.0927521126116286  F  F  F
0.3150672333497946 0.7178303047272870 0.3109004483143020  F  F  F
0.3566588084605261 0.7280755442994109 0.1041260280528071  F  F  F
0.2928490679734137 0.8536985153607205 0.2962784922411709  F  F  F
0.4454142236730996 0.5730824155664034 0.2239892455084010  F  F  F
0.3976499900590663 0.1037229538338026 0.2887409471307457  F  F  F
0.6283801492041938 0.1874184173052513 0.2300061054519162  F  F  F
0.9168817423906296 0.0396418502393615 0.2746108157140558  F  F  F
0.0768365634458536 0.7706684155130692 0.3129316103236142  F  F  F
0.8109942034448849 0.7411484980111055 0.3503803720926476  F  F  F
0.8147492499227337 0.5316537864005976 0.1464687366125147  F  F  F
0.4137632562601944 0.8371008120446950 0.0640637589527033  F  F  F
0.5314171354325403 0.3904758789942471 0.1560305366948222  F  F  F
0.4731756796577013 0.3641274284040885 0.3392961935636810  F  F  F
0.6545218346616748 0.6767212169445321 0.1789336612818557  F  F  F
0.4659461087409416 0.7147744983850621 0.2062885063898928  F  F  F
0.7728177010392350 0.3986921726024343 0.1586160291871115  F  F  F
0.8529760097741557 0.7770145885273446 0.1323561087032197  F  F  F
0.8555934154962226 0.9224283164925988 0.2486549881283755  F  F  F
0.8685988660282722 0.5359340502321475 0.3165088615515435  F  F  F
0.6191539818023225 0.1333667261481474 0.3078230104500542  F  F  F
0.7737327497921491 0.9968409497392893 0.1835135037454140  F  F  F
0.5939553682468806 0.5614005091200399 0.2270822221315466  F  F  F
0.6164671459844488 0.5737568978822499 0.3194105430798908  F  F  F
0.9613481817677898 0.0773456998345776 0.1929766717300372  F  F  F
0.3292931496787489 0.1473285288294575 0.1230799200163431  F  F  F
0.2904188939613936 0.9151939655264909 0.2137630826834522  F  F  F
0.7436953840934114 0.8802938882696979 0.1240162327766481  F  F  F
0.7657668673121317 0.6949742258257624 0.2380054940096124  F  F  F
0.9471340779090057 0.8451510371514536 0.1920970928777453  F  F  F
0.7269147618000402 0.0920026584663452 0.3632987589457606  F  F  F
0.1606501483334504 0.8801931001643184 0.3231478957602175  F  F  F
0.0770022157665183 0.0052517683309804 0.0791950020314216  F  F  F
0.4678533587069822 0.3231774398953738 0.2254406419309269  F  F  F
0.0451945581004781 0.2600264185866377 0.2914524856935194  F  F  F
0.4782902317924561 0.1771293377236131 0.2242801068800687  F  F  F
0.2004189907211472 0.3262771643362766 0.2174278540256232  F  F  F
0.0911623581356234 0.6557001740012895 0.2617994421116602  F  F  F
0.1343522017154993 0.1336723450049573 0.1073305187576594  F  F  F
0.0422605069634236 0.4959198456427474 0.2085837148775934  F  F  F
0.3839179435497725 0.8187313248615539 0.1765570038253152  F  F  F
0.4734855250472310 0.9813664491594516 0.3070789580621865  F  F  F
0.6347995116221775 0.8787349146091913 0.2529194548189171  F  F  F
0.2647943636113665 0.2790231420802212 0.1407160536546772  F  F  F
0.6492191462667011 0.0531900110901636 0.0967456958008647  F  F  F
0.5818402430133939 0.0122874956801714 0.2586754451840315  F  F  F
0.1533362991623453 0.4661546771487569 0.0921176686784715  F  F  F
0.5417857945374707 0.5243941258798688 0.1158614517148779  F  F  F
0.4648558608103045 0.0121515762640372 0.1177760510119256  F  F  F
0.8082355041479482 0.2603934357532044 0.1387916210412111  F  F  F
0.6878822946316467 0.2609161745775443 0.0837605703994267  F  F  F
0.5708848347522534 0.2591776481902341 0.3332959806669519  F  F  F
0.4747194676419787 0.8468314140570028 0.3355112724308043  F  F  F
0.0649690568387972 0.1734668089921588 0.2187836966906145  F  F  F
0.1582066545227399 0.0157097095925406 0.2860209177461728  F  F  F
0.8447952867619922 0.1207541993833129 0.1485671172704866  F  F  F
0.9926128383771996 0.5581687481773032 0.2809442418985362  F  F  F
0.2956848831057771 0.9183122734810463 0.0888560066121893  F  F  F
0.8533182364439973 0.1421472861986725 0.3288577946686623  F  F  F
0.2575472953915603 0.5260286893828217 0.3434525180890874  F  F  F
0.0332751233567065 0.9553915599066379 0.1588573982129396  F  F  F
0.1591859673669646 0.9681974940361044 0.2018505148018629  F  F  F
0.2648654634926135 0.1122692369299838 0.2591311299792221  F  F  F
0.0378283295013482 0.5386118456858541 0.1217081679712598  F  F  F
0.7909566406567933 0.0746621341255209 0.0718728477163819  F  F  F
0.3588578443505774 0.3560977676642256 0.2854845710064289  F  F  F
0.0810321525396221 0.6802080839169393 0.1188087901605320  F  F  F
0.1848902939254230 0.1058452070558936 0.1878120389722116  F  F  F
0.2763570569272252 0.4470547341931652 0.2398676033630217  F  F  F
0.1487768584212837 0.3155943795533691 0.0925152160302868  F  F  F
0.5411980586133345 0.7765362513903160 0.2747590435590535  F  F  F
0.2535842025898242 0.2529599364577422 0.2899264718343293  F  F  F
0.7197148136245746 0.3991835219263923 0.0696166041730009  F  F  F
0.8678586629956492 0.6584899569748137 0.1835414629911739  F  F  F
0.4960909449724172 0.8756881918372144 0.1338284130573390  F  F  F
0.3754373553238506 0.5879609788741844 0.3021516566381173  F  F  F
0.6483323569640284 0.4237621334004959 0.2065515075802058  F  F  F
0.8475198377526167 0.3983321121019208 0.3248774942564637  F  F  F
0.7605787485334633 0.8216764038826931 0.2809709532211988  F  F  F
0.6275252249100601 0.8242274679981214 0.1676960405995347  F  F  F
0.6089024566547131 0.3172250283145286 0.2559276743656158  F  F  F
0.4718017350211122 0.1464959913797655 0.1378459315264137  F  F  F
0.5454248764147730 0.2650861414983813 0.1048268622493472  F  F  F
0.4779120702638762 0.6598066716348342 0.1218133780895640  F  F  F
0.0283815689245564 0.4760995423582733 0.3517121795319428  F  F  F
0.9094002414110076 0.2684381959874215 0.3265738637144942  F  F  F
0.0379291700648825 0.0489089243884445 0.3272442251084082  F  F  F
0.3369082422604641 0.0122080597087355 0.1565176562440860  F  F  F
0.3595321920812656 0.4955501402404177 0.1710162668009287  F  F  F
0.1574327507235790 0.2883246102639861 0.3501741061768958  F  F  F
0.1527723164232424 0.4288510356623328 0.3241215055983188  F  F  F
0.6786966646482052 0.5761578025013212 0.1206858968759129  F  F  F
0.2340757295706861 0.5518030000027591 0.1424075607619316  F  F  F
0.1773352701316214 0.5537563609878144 0.2242780388546502  F  F  F
0.0058411878887430 0.7144084706344739 0.1933197632123913  F  F  F
0.7514141985300630 0.6220549979307683 0.3169575927949275  F  F  F
0.9366655674629505 0.2941803392890560 0.1017243148290686  F  F  F
0.6480947636988297 0.0681764380359595 0.1882237779063200  F  F  F
0.0825392950881573 0.3786778036726878 0.2472277612549112  F  F  F
0.9078177237018109 0.5339869613665588 0.0754367206043916  F  F  F
0.0535995627717987 0.2388406485159878 0.1398645503926357  F  F  F
0.7323833242441683 0.5838503572182052 0.0635065999821577  F  F  F
0.5649449135831149 0.4808488554165228 0.0587420863074169  F  F  F
0.3242503950048206 0.4140771904003593 0.0529550989371876  F  F  F
0.4526117867923298 0.3532287490138589 0.0993472569785663  F  F  F
0.4652199521467366 0.6078773476821400 0.3351343941703836  F  F  F
0.5614179237700567 0.6300111177379429 0.3632832665296080  F  F  F
0.5698109304215784 0.4738969368995489 0.3280449733200916  F  F  F
0.2072807232750699 0.7153682459357239 0.3010363354987071  F  F  F
0.3114564868447057 0.7308456053436402 0.3766103240425654  F  F  F
0.2222706828874786 0.6254777056069009 0.3382816755212587  F  F  F
0.2753404465498503 0.4526942275743306 0.3891297459736444  F  F  F
0.5238952516217329 0.4022768159982028 0.2873251437816193  F  F  F
0.4527235407972330 0.4149141190707209 0.3960971878092626  F  F  F
0.1361795525675190 0.2310099816240809 0.4034794523384707  F  F  F
0.5841844702433918 0.7003090369135974 0.3117901997141948  F  F  F
0.5878612618532895 0.2947223580045700 0.3944204175233099  F  F  F
0.3791765847832877 0.1899232314498124 0.3246689038532549  F  F  F
0.7034991190961354 0.1390119204080236 0.4203139567317955  F  F  F
0.9025143642533312 0.1709195584146620 0.3834390071277072  F  F  F
0.8974211793530417 0.6968200973471632 0.3240028339171505  F  F  F
0.7762702388042082 0.7840479589517081 0.4064804613329759  F  F  F
0.9254902167098017 0.5452438367433122 0.3729659343313547  F  F  F
0.7525272016916740 0.3502137530128028 0.3217237721249737  F  F  F
0.8612138019358355 0.4518915332833066 0.3803079387722499  F  F  F
0.0261287521245360 0.5380124861072052 0.4061069148197914  F  F  F
0.9490445348997576 0.4110855704642215 0.3696198970286581  F  F  F
0.9684769343843396 0.7732591744790005 0.3173328658245378  F  F  F
0.0964865458809840 0.7154104460866025 0.3684032437097421  F  F  F
0.1387039615631515 0.8395562778869661 0.3808351308877820  F  F  F
0.9812660011214015 0.1182577486271313 0.3607802405342459  F  F  F
0.0675510795534768 0.9722402635362656 0.3696757384649416  F  F  F
0.5500483144443864 0.9092138831260244 0.3564107931701698  F  F  F
0.3985287512941240 0.7901166711769747 0.3653365997951014  F  F  F
0.3615129326575884 0.9026266642123675 0.3352370910290139  F  F  F
0.7194684795220500 0.9873148623958643 0.3718621956211912  F  F  F
0.5507641410607618 0.0258951090707108 0.3412510724102739  F  F  F
0.9389518869223914 0.2968074857663430 0.3880894998317960  F  F  F
0.8189509747440274 0.4256811039445554 0.0498809167654890  F  F  F
0.6708761181943840 0.4892168314266300 0.0594891135935236  F  F  F
0.7257488690711057 0.1828331414211010 0.0431028041972668  F  F  F
0.3114028786081585 0.1007921445404963 0.0647352962214984  F  F  F
0.1395347440735805 0.2445483269043750 0.0466654502020134  F  F  F
0.2237574876618164 0.4841135793189809 0.0458041844584546  F  F  F
0.2550792963281494 0.8201618764004937 0.0989581078004355  F  F  F
0.4767349937064724 0.2753409447997244 0.0550552453940430  F  F  F
0.4553977127690383 0.8216589075122970 0.0038845522710941  F  F  F
0.1628781725546292 0.6707786943788604 0.0363361067388421  F  F  F
0.4145699385461411 0.9742432939450925 0.0650732710536194  F  F  F
0.0133139936732447 0.7229380244624339 0.0765981894099373  F  F  F
0.8774704811647434 0.7924038753293103 0.0693008530741075  F  F  F
0.7021178129298123 0.9290125405014290 0.0739338828060551  F  F  F
0.5239940778259561 0.7345642881170841 0.0864664267547366  F  F  F
0.2217356713875695 0.9602820251415581 0.0509967196305312  F  F  F
0.9272985924284836 0.6194486989436682 0.0393087191460478  F  F  F
0.9332906567677210 0.4543713908859410 0.0342820015962106  F  F  F
0.5952004711812793 0.9626284258681609 0.0941526294921664  F  F  F
0.7980467910171759 0.9705574926141268 0.0641091241893753  F  F  F
0.7800741482464980 0.1025209405550668 0.0082306566530905  F  F  F
0.2148081156596843 0.1564929460690840 0.0684758302156530  F  F  F
0.9842811337070807 0.0369735626500340 0.0542779591594436  F  F  F
0.9964994662266877 0.2828678240094420 0.0477668839867232  F  F  F
0.9317622114137629 0.3988937347649289 0.0940581280340017  F  F  F
0.1173249592683827 0.9354942163932913 0.0369613370361584  F  F  F
0.6352148199366001 0.1408116334860189 0.0613888091481444  F  F  F
0.5642494494824666 0.5375343073077988 0.4014210231397805  T  T  T
0.5319446382232853 0.5945807672045510 0.4416637040814799  T  T  T
