 O Si  H Mo  C  O                       
   1.00000000000000     
    21.3948993682999991    0.0000000000000000    0.0000000000000000
     0.0000000000000000   21.3948993682999991    0.0000000000000000
     0.0000000000000000    0.0000000000000000   34.1699981689000012
   O    Si   H    Mo   C 
   242   102    64     1     6
Direct
  0.2839188850452530  0.7117599899102375  0.1004409460053414
  0.6121673671771285  0.6249888453750123  0.2021203359459982
  0.1504951293792660  0.3910920511876346  0.0915944811723876
  0.3819273480203641  0.4399943838853558  0.1399718425827463
  0.6761039368488745  0.8487280585371262  0.1346328664092280
  0.1037011277096826  0.4665803824782739  0.3514207873725413
  0.0041521789850442  0.7584675266772278  0.3020780000579965
  0.6579676177887341  0.1424957961668806  0.1962160317112603
  0.2143131836782258  0.9171233756826461  0.2053982909188571
  0.8457881444328728  0.5316239446353247  0.1024998358590169
  0.4128171822503772  0.7697602853654610  0.2088966207485660
  0.5181735745258488  0.5530351039338968  0.2254328962816183
  0.1160578592079837  0.5133002309859744  0.2134871842175635
  0.6110388076374567  0.4968623706320588  0.3362542954043906
  0.4347966079830088  0.6478065460539977  0.2190658526303358
  0.1237767408334220  0.4174879906813820  0.2789990781102654
  0.5202626672110727  0.7336663624496973  0.2370558222622390
  0.3180221627054954  0.9831542200125033  0.1992980184225772
  0.3233215522226923  0.8573326520649597  0.1920402842412626
  0.8153348311346705  0.8750887042511755  0.2735521313574751
  0.9739542916912917  0.2478294157771312  0.3074381038834230
  0.9874028763343834  0.0427686414059304  0.2916806074737908
  0.0028401167299829  0.0208868002641300  0.1743562312803696
  0.0977541629557065  0.2961440609154322  0.1245770899557557
  0.5909491873672040  0.7302679942674554  0.3007576507349058
  0.4273304367293571  0.5830553668448899  0.3384711966629749
  0.8011512629679397  0.3271334214822752  0.1652852888963404
  0.0634584992771000  0.2047033639230761  0.2612076674830827
  0.5244474142356933  0.6887910167248410  0.0880130145836949
  0.1538375364611324  0.6144089643236121  0.2495845780755594
  0.5524070308475590  0.1774328679208303  0.2320157157060460
  0.7181703964115680  0.4131455412699475  0.1921369188903350
  0.5113293033737571  0.9507473804518841  0.1248009639167275
  0.2540062474474596  0.8638107665360409  0.1083195865650588
  0.6276269500004613  0.7482508704253521  0.1745515046935098
  0.7413043208947711  0.9052146542539765  0.0784133784517222
  0.6949549761617816  0.8510963063525017  0.2796280166442283
  0.7214387494639134  0.6824465498298998  0.2016385764192871
  0.2232608969721797  0.2849364218164938  0.1801782704735057
  0.1139620186226732  0.0612114487428579  0.1014109874308533
  0.5651292902279463  0.1811417385195695  0.3212370830278079
  0.7794888999990485  0.6719552849447167  0.3486584360440294
  0.2044467817050804  0.2821140261225274  0.2564978044967712
  0.6159769485321853  0.5368797968779949  0.1301972884476455
  0.3297259932312206  0.4639547679998982  0.2088634122805073
  0.3159122931706364  0.3351487397300381  0.1383058396972628
  0.3027472420607383  0.9724149435241648  0.1224764140851523
  0.4998224433520720  0.5870290158249193  0.1275644353271079
  0.8702330062044896  0.4644005354177825  0.3026695994751846
  0.5925025647434894  0.0629681348383693  0.2931940283460528
  0.4608335795572918  0.1388770297777778  0.1851002178263717
  0.4793713057686891  0.7922626400994460  0.3025246057018598
  0.5128491247485967  0.4105137363917806  0.3182692917964613
  0.0995683219773863  0.8424788706276074  0.3046059281477800
  0.3120903448442203  0.4165679551537356  0.2780279196544166
  0.7812059037325441  0.1291573310112601  0.3400014544451015
  0.4917950502589600  0.7030700818653034  0.1621724722269359
  0.9895676555765961  0.8957537462329668  0.1675673088313563
  0.8859377272261791  0.7360795454901538  0.3376634559957097
  0.6125432179572967  0.5751630848072369  0.2728046290880569
  0.7920963660880393  0.8208771148648282  0.1260184423972264
  0.8856891640074328  0.3379327359775247  0.3110811412399277
  0.8212409132863016  0.4588752544838727  0.1639625550581456
  0.6385278091712534  0.2625002212090016  0.2271464249342507
  0.8978761349288088  0.8166589197150359  0.1614556953364720
  0.8749360335834778  0.0951037911537422  0.2947262752682165
  0.4438155339732563  0.9121923358595283  0.3163560821796646
  0.1070034551961783  0.0597529710727523  0.3075798737377900
  0.0339665921646857  0.4253097239208884  0.2223437624134198
  0.5735391856373551  0.8376926088979921  0.2643120130040890
  0.0030210353099408  0.1318567950120532  0.2112970194961142
  0.2174720944170965  0.2862745613480467  0.1030199322515555
  0.4381209732275865  0.8700085648529073  0.1653262411549000
  0.4123073888438359  0.0072954558014942  0.1524424942303491
  0.1245639771198709  0.1280877865303551  0.2138743942288484
  0.1009891146185375  0.9399574574510622  0.1770564224092356
  0.3016171889033263  0.9037512322216471  0.2604065137094208
  0.3622155307445510  0.7779725797595685  0.1404078022087424
  0.5898801961403068  0.0424289257891104  0.2161143109085573
  0.3176758985022076  0.0865133071545710  0.1510414204162823
  0.4093165662750762  0.3515271135537506  0.2503398088685701
  0.5163417880732439  0.2083154267397249  0.1316981552038864
  0.6961786083896728  0.3280608060909338  0.0621176891522583
  0.8381505870257879  0.7080919491527417  0.1511780501714916
  0.8373093241989311  0.6696807743540757  0.2256876564283680
  0.6205388418639878  0.2582391342544283  0.1064339272654067
  0.3813894851427845  0.7691312977483519  0.0663260071540792
  0.4210758201763820  0.0355319987601836  0.3038402604398922
  0.3145390569589307  0.5483833404237625  0.3145689462124291
  0.2452495965342280  0.1249000884145180  0.2134481188414985
  0.7410984906796206  0.5485382717918945  0.1436847797663517
  0.6296368406190541  0.0584699961124762  0.1429967870212425
  0.8139221784715919  0.9625195199656245  0.2176444714280094
  0.1671637729052127  0.3632140886631899  0.3438506942922590
  0.2427337336095915  0.6949820735719989  0.3142475628256008
  0.0450437908186565  0.7222633456780525  0.1517414624842539
  0.6688957793064536  0.6489331735091249  0.1353709946176147
  0.7071096202431698  0.0226496217134314  0.2002414858242995
  0.6485891554642180  0.8625599781424853  0.2071093621447483
  0.4112325025078541  0.3537313712628990  0.0869484104726472
  0.5194186448270187  0.2627340290030830  0.0606189676405544
  0.9120979108532193  0.8831828932052663  0.2266589821595581
  0.5278501981414080  0.3363275097126335  0.1226869653318408
  0.4045164337833757  0.1584668207587442  0.1170022993714476
  0.7722373796206271  0.7683798818475931  0.2474353127898111
  0.6335436167865881  0.9800676346773366  0.0833770464228464
  0.2153311063009506  0.4712740509363010  0.3209103538338776
  0.0531487203333564  0.6795090688383627  0.2229698099184747
  0.8869080867081730  0.9715953068631313  0.2803601038548371
  0.1845255569457887  0.0311980945283055  0.1798512936011026
  0.3365447091511495  0.0880249258556663  0.2605614829387265
  0.0438709873068697  0.6145994465132051  0.2888203374659014
  0.9172327767370942  0.1097533918417337  0.1586874589455802
  0.4460894078385274  0.1435010115626192  0.2619452976111223
  0.1816444623244802  0.1392787422361910  0.1447550945192135
  0.1314783998839094  0.9893190431545003  0.2444223846672244
  0.3204725498176166  0.8835284425587612  0.3361346011957961
  0.2967498609098712  0.1372190591606040  0.0798186223749251
  0.8642343457815140  0.2713793309568783  0.1081281112946209
  0.8916712305009744  0.7667967951302381  0.0911507710120432
  0.1152991120543116  0.7176991785226405  0.2860815994111681
  0.4759463596546902  0.8396575666659494  0.0942324634278125
  0.4354771022303933  0.0126512850439787  0.0741101132975064
  0.2187799510923102  0.8402469115168073  0.3047771901692222
  0.8071340258930739  0.0604690547584712  0.1673992869052512
  0.9441340074812786  0.6710520750375473  0.1858232772313906
  0.3171670887661515  0.2908015189258560  0.2882417148242064
  0.9167990589599028  0.0513187900749811  0.2272223655063585
  0.8001860079787806  0.5652728815516928  0.3096631767485685
  0.3581414450442862  0.6615728177061975  0.2936320468668672
  0.4969339289528665  0.2865014946724641  0.3312487550752267
  0.6612937011504404  0.1169109471976313  0.3463024514361365
  0.9212192022172313  0.5793135181870375  0.2918641059867720
  0.9723128924535398  0.5518268620468247  0.0985868978606941
  0.5116759956948456  0.9829763074269272  0.2655897749416559
  0.4041564513077811  0.6684439183418447  0.1116427869175393
  0.3802006698174903  0.1421449168370342  0.3281427837061876
  0.4762452057784904  0.3688227986189344  0.1874838069352101
  0.0227714417671391  0.5073945610609981  0.1625161151858532
  0.0831051381761155  0.4958185224414287  0.0943575020429502
  0.2077159587853704  0.5800912324745031  0.1825609652978232
  0.9806661568021227  0.2543051856499387  0.1318319458903874
  0.1951854244305173  0.4895547406760689  0.1291169383985170
  0.3675303619188642  0.8952638609246849  0.0768239810196682
  0.3085878042419541  0.5373327895251716  0.1467605338338964
  0.7425071182241954  0.4036090810155862  0.1159477424187611
  0.1577120326823269  0.6995407939710527  0.1180136866980811
  0.5625910913423029  0.6150031865849800  0.3368723219459293
  0.6136063067559151  0.2926556159796800  0.3016840716769258
  0.4536685399051521  0.2496032964555838  0.2174721140297913
  0.2627680296244757  0.1787054070627662  0.2812590436275747
  0.6863633786426983  0.5937796447746464  0.3338350508563082
  0.5328492503144097  0.3285292128845311  0.2500474624097422
  0.3963142022501522  0.3625214359335290  0.3263060479935589
  0.2994158062001085  0.2116644514774748  0.1405650200796719
  0.5995172178872322  0.3898558465474220  0.1771321890156378
  0.5364951565368130  0.5137610150121671  0.0699946831670787
  0.2375058501173904  0.3892709763340445  0.2203612922132208
  0.6416277927951034  0.3836322013821211  0.2489373417265675
  0.0407229475096237  0.9621163958363682  0.1107265749927886
  0.8536449064045791  0.5850870729289839  0.1707138160859052
  0.6906409407658678  0.5715060561771329  0.0735674578142116
  0.6291767753182009  0.4975536624124593  0.2142742940445045
  0.0714925047830121  0.1748359183685917  0.1147373216981060
  0.9123890762045853  0.2667549395165828  0.3749219460883968
  0.8342452736573874  0.1161910018061667  0.1011747115193091
  0.5006164439176697  0.0800777950450904  0.1226289974610311
  0.6295435829655891  0.9501558104069875  0.2628067442652038
  0.2291806878114160  0.6018314520631061  0.1059332397273921
  0.0666721484246346  0.2289099281076131  0.1853572238099341
  0.7624849379419379  0.9405121223835389  0.1510430219160832
  0.8214260949571558  0.1927535743852583  0.1621362660759649
  0.2185074781437449  0.2551747095551600  0.3320843864212494
  0.0254271030837793  0.1115803049021280  0.3538399634610913
  0.7244053004451144  0.0614940340265564  0.0937500777407511
  0.3046151860266280  0.4146465200822705  0.0787630562289690
  0.7747052309625577  0.7912817093502135  0.3247356117531872
  0.0741370432118914  0.6073756367948738  0.1275999690465837
  0.8566119847591716  0.2160932903044856  0.3150770127976872
  0.1257520159802548  0.3456297885859974  0.2138999569751784
  0.0389169983000122  0.3278309263794664  0.2682265506893675
  0.6583783309294321  0.1620826796807409  0.2718034316827873
  0.2299111955910030  0.5084271946406123  0.2446708808400593
  0.7403453849864212  0.6566217754010384  0.2753933106961259
  0.7418875552295441  0.2504909274423808  0.1166945667141316
  0.0082881205033648  0.4978905054561252  0.3072989430125231
  0.2126023138622707  0.5863652553480281  0.3527142712055951
  0.3214727253274074  0.7835728304432414  0.2857063938339096
  0.0939123787561370  0.2645193433078566  0.3256568279111349
  0.4066567941896841  0.5552155379757630  0.2633245795125674
  0.7389150755314199  0.0168969214574351  0.3558731995611504
  0.4166390167180854  0.5372619121811572  0.1852058770068927
  0.0537387063694539  0.6994263290231943  0.0754913560101602
  0.9968318699212380  0.5412595157463089  0.2342778748972111
  0.5188894645685623  0.4615680665080362  0.1402372513976674
  0.9881885650712264  0.7855831762968686  0.2078903468914231
  0.1705895044924889  0.9535154946410478  0.3124346153139397
  0.5577922759598034  0.8440124761241909  0.1532084295651314
  0.2204748073078242  0.0581605332281275  0.2788099859086685
  0.3405709586035142  0.7313095435693360  0.3565859390970274
  0.2836660462379390  0.4961288787645771  0.3836411492749281
  0.4752406849060135  0.3671315250540379  0.3875516138395622
  0.1467452027327258  0.2750615992086682  0.3957255492700632
  0.5972654436661631  0.2624880984645946  0.3767406416017331
  0.7287183718802080  0.1043349506364311  0.4111319643263951
  0.9000218441627120  0.1334650032471796  0.3671754019934647
  0.8127755038437285  0.7650973541394466  0.3971039847621579
  0.8832868640039416  0.5432099980428189  0.3639587330719244
  0.8681820849645167  0.4091454754796562  0.3722789668579081
  0.7730199765020590  0.3954339983378519  0.3181844646110249
  0.0094700209466035  0.5371130213359537  0.3796120685318473
  0.9956581392813006  0.4122168207008928  0.3651878590061152
  0.5452829353456160  0.8652050907843066  0.3523037338535807
  0.0957199879010593  0.7583552794483271  0.3593334768303361
  0.1556422291389036  0.8789232297064878  0.3710490088978952
  0.0338246197078231  0.9830717431461040  0.3510717199616016
  0.4321207018294228  0.8223289714752079  0.3718788377905785
  0.5206742925143512  0.9928306460771148  0.3450449993746264
  0.6588409913255686  0.4449249200593272  0.0622721869107711
  0.7758283590488432  0.4208357578184583  0.0411917361632836
  0.6868981568197977  0.2039210064044562  0.0522161989050358
  0.1291292834099783  0.2895114673446151  0.0483526894793361
  0.1815292626113027  0.4911272094254708  0.0494535133869167
  0.4367339722925369  0.8536018487119057  0.0199186860356255
  0.2043471713906782  0.6812905046885686  0.0461116513055472
  0.2664504236775882  0.9500156201711444  0.0494295364783328
  0.8962089358572332  0.5870640512271940  0.0416098770537316
  0.9117390588142396  0.4622278734985790  0.0573630094943985
  0.8219602303541950  0.0093812055218643  0.0577138387359288
  0.7807167968066742  0.1222515701412274  0.0337531729613489
  0.1702136404175409  0.1619062851756050  0.0682974415238008
  0.0276301869690991  0.0291822484645617  0.0454405670838468
  0.1327651010133431  0.9664992608654895  0.0551980993975787
  0.9522165355464112  0.2795672376413494  0.0557881443260952
  0.9456367879430072  0.3681016550697993  0.1132837741047122
  0.6125576551696201  0.1023789968562292  0.0692365385572810
  0.3819152107606987  0.5294324142573194  0.5736353438165763
  0.5324250918807524  0.6798292690159393  0.5735680984192658
  0.5324399268770914  0.5293512959743715  0.4794109050386716
  0.6827950072364395  0.5293608247949578  0.5735106347857272
  0.5323508183103016  0.3791169138204635  0.5735756061324028
  0.5322431326850933  0.5295045234656455  0.6677553949996052
  0.3536548771887946  0.3855115251882629  0.1114109284484436
  0.2184955132342764  0.6738218847943132  0.0928730902859160
  0.3160110764419223  0.7186108016464536  0.3110929316717295
  0.3580010429511801  0.7287688632478267  0.1047391456407738
  0.2926234227568290  0.8536936622449971  0.2962033803688324
  0.4443928270310434  0.5729337309352790  0.2234288264289631
  0.3965314362460597  0.1031136503161812  0.2883689749940596
  0.6277296160722758  0.1864329966040297  0.2304650478066624
  0.9173304626911231  0.0408383511578175  0.2744538585685117
  0.0770064915810603  0.7705643707732024  0.3127949646271816
  0.8123414719244739  0.7410255801411558  0.3518223494245212
  0.8154792610228293  0.5306641740924771  0.1466181414873187
  0.4147385061593589  0.8381727510122228  0.0645203324521437
  0.5309592958414754  0.3909874297517076  0.1566709344708766
  0.4692388682925864  0.3568623381190524  0.3402939654709338
  0.6552758775946574  0.6772402232729364  0.1791146063725401
  0.4652421784194157  0.7142053541282537  0.2067830628142454
  0.7721208585174034  0.3986614151598969  0.1595188470136953
  0.8535890944885731  0.7775841039435096  0.1325659782455975
  0.8571171075030364  0.9234161756783064  0.2484722761436047
  0.8695859673951812  0.5378844095835913  0.3166602193782764
  0.6195206888841097  0.1309130483121990  0.3079587375341230
  0.7737741175234284  0.9964187689616979  0.1834036615351275
  0.5936468665076823  0.5626267218215953  0.2276143554025266
  0.6186839955065344  0.5671759096311066  0.3196345289456151
  0.9607014151071931  0.0775876519586865  0.1922771654689305
  0.3296159621360536  0.1479083537996577  0.1232479697650870
  0.2895720588545340  0.9157718612370586  0.2140183758156616
  0.7437678635988020  0.8797699940442301  0.1239309155221160
  0.7677340783604745  0.6942381716606477  0.2380743478916653
  0.9478082544259692  0.8458499236816955  0.1918467554405637
  0.7277879052979140  0.0913561485342766  0.3638365804878405
  0.1605428074619163  0.8801185210039538  0.3232035757231941
  0.0773353675056399  0.0055342660688732  0.0786774373963257
  0.4673702323186678  0.3233743356865349  0.2254881486231810
  0.0433575690460530  0.2608943371634126  0.2904936281378345
  0.4775969660474439  0.1773899280899758  0.2245033989499449
  0.1984941766750865  0.3249932235029124  0.2171929960192480
  0.0916097860064621  0.6560625610883392  0.2613204333621509
  0.1345798972903235  0.1338338956904123  0.1068466928675901
  0.0424380919401902  0.4970200865760888  0.2077519277690920
  0.3840779258244693  0.8192298638813137  0.1774957643108456
  0.4733627449603249  0.9813304972310001  0.3073271894792470
  0.6365847824920713  0.8754478722800996  0.2536958028402475
  0.2642976350341495  0.2791834322375899  0.1401989085480385
  0.6489065479401773  0.0529270411260656  0.0968403882512265
  0.5821594683116025  0.0094323774536126  0.2587619690606247
  0.1536634943177804  0.4663584217759848  0.0912668912231531
  0.5425182195318153  0.5251934194064203  0.1170036356998400
  0.4650188210675740  0.0126774404348676  0.1182248260277807
  0.8078658288575719  0.2607204583370605  0.1393271233880345
  0.6877087125872827  0.2610434057958797  0.0840594794791036
  0.5675245294419684  0.2556476592484944  0.3328564071878106
  0.4755192359472923  0.8471734281664671  0.3363314119000825
  0.0645111998083340  0.1738762945366806  0.2180087334871791
  0.1579927608839292  0.0156804369223193  0.2860247424862287
  0.8435481142403349  0.1211512678968318  0.1485575491604827
  0.9929492611798248  0.5590047878654820  0.2804736448733150
  0.2962214915124513  0.9190567533119294  0.0888171741286799
  0.8532557688746073  0.1426938418902786  0.3288557080099248
  0.2565617675209528  0.5263557669786568  0.3428264009221798
  0.0330984333635726  0.9557573501758196  0.1581230687505400
  0.1584757836915597  0.9687991175165589  0.2018412108990521
  0.2646950571060604  0.1117231445690176  0.2588629805888670
  0.0388175751137480  0.5405249683537512  0.1209685429888524
  0.7904611675085566  0.0750118535756635  0.0718595486610843
  0.3572556656191484  0.3558152815105282  0.2852352803566422
  0.0829019125067672  0.6821641496239322  0.1189062160040203
  0.1842134553828934  0.1062291832804860  0.1877446032128036
  0.2757055189595196  0.4466358312195892  0.2396303035578176
  0.1491353351154743  0.3157085685445373  0.0916207040415930
  0.5405783556871033  0.7720803035889785  0.2766035312420550
  0.2509455323805586  0.2519195622142184  0.2891525936795358
  0.7193203111617074  0.3994131380964245  0.0704230158816057
  0.8687991688020615  0.6580489919890494  0.1826997695493192
  0.4961463494993522  0.8764772625871193  0.1347722350403320
  0.3766917254401375  0.5877980953917399  0.3028053606224582
  0.6475867696856209  0.4237805468477764  0.2078444019466854
  0.8480962924663268  0.4004434724901796  0.3252653265803087
  0.7643303678291737  0.8212201042756163  0.2814699260655853
  0.6276615743885194  0.8243484885773618  0.1679836626491083
  0.6080371401944309  0.3161383570985626  0.2562742552882417
  0.4719839971356874  0.1469557880411003  0.1381466051846594
  0.5454413336045683  0.2656785250161918  0.1053462108035656
  0.4796622910177523  0.6606388915746644  0.1225811613125315
  0.0289966868642356  0.4767661609088323  0.3512260878909710
  0.9082368787031834  0.2692545846146223  0.3265348992765256
  0.0379661747686766  0.0496251006132339  0.3272604937632509
  0.3367492847555013  0.0127414879389526  0.1566750788217342
  0.3591569866988789  0.4944237836235612  0.1699563597638725
  0.1554171827562033  0.2887308128508461  0.3491059394750030
  0.1524515713171292  0.4295011188029245  0.3229284365444722
  0.6793884933155114  0.5766226279953074  0.1213056727229070
  0.2347727231259574  0.5519090641576107  0.1413132577232100
  0.1778593317351996  0.5540457289872938  0.2234544783603324
  0.0062777206610922  0.7150151114864419  0.1928668488095315
  0.7515370633013821  0.6222575474628155  0.3171242719565579
  0.9364339122046590  0.2944644806120894  0.1019381843752805
  0.6476864506707266  0.0666754498492923  0.1884070226659185
  0.0812841994420073  0.3796742861343163  0.2463366362247930
  0.9081655021111724  0.5343153532199929  0.0757266462553657
  0.0538772335508012  0.2388575304006806  0.1389499469913620
  0.7315506600236744  0.5828647291213778  0.0634913889940953
  0.5648319238387636  0.4818967534142783  0.0596649756222959
  0.3267503658232411  0.4376839064271894  0.0585282202229982
  0.4525589236972023  0.3535964849437229  0.0994361824073604
  0.4706115423620688  0.5955909095398598  0.3336324904392600
  0.5631497496176452  0.6214170164011206  0.3650674302434135
  0.5744809441148433  0.4703370177395495  0.3308485869809614
  0.2087060641004871  0.7154584903047593  0.3001034662135041
  0.3080739658075272  0.7437543132312504  0.3748526674272145
  0.2215159737562173  0.6253284847323263  0.3381753169741052
  0.2814514559372698  0.4510087765238476  0.3856742652431980
  0.5202442292767895  0.4011632648303902  0.2906426713063521
  0.4561954229458131  0.4038861528707051  0.3991424765368259
  0.1317254807756651  0.2338699210171941  0.4029346364376683
  0.5771053157832902  0.6911967759522409  0.3131128873066583
  0.5776856221712282  0.2928586083112381  0.3939555836288436
  0.3764121814782737  0.1871872246442906  0.3259681659396202
  0.7052261974443563  0.1401121285763197  0.4204874001423347
  0.9026234497021985  0.1712306275975891  0.3833776729590853
  0.9008165046090669  0.6949501745609014  0.3299615882665369
  0.7743713069736459  0.7823632281459023  0.4075320918288595
  0.9270573353900358  0.5476072917635163  0.3727797473826540
  0.7502474929834507  0.3575426818569760  0.3243777336362845
  0.8604388354285504  0.4517537616509330  0.3817906041267580
  0.0277438936446244  0.5386807290460566  0.4055946297174565
  0.9497834268840537  0.4121181628761860  0.3695734509762788
  0.9687705119163679  0.7728238283907473  0.3177016763552534
  0.0968247920665970  0.7152918233432868  0.3682520362411350
  0.1380460268529835  0.8397576108144292  0.3808284213327846
  0.9812002566491195  0.1187822271969345  0.3607943114008987
  0.0661542173020304  0.9729434037844278  0.3699818088238440
  0.5507122727600730  0.9103002585377779  0.3563053700234909
  0.3999662880336297  0.7906080583647566  0.3662054592487597
  0.3619898008906674  0.9026117172456537  0.3346334645706293
  0.7227451715201486  0.9872064953874188  0.3747203055728024
  0.5512463562465160  0.0259670432275704  0.3408339886332400
  0.9388510887436728  0.2972293367087788  0.3879263459763213
  0.8187048558783544  0.4241848618596521  0.0504902076321157
  0.6702284707158997  0.4895492417469800  0.0607890354222280
  0.7256583294115116  0.1830854582967997  0.0433430081542869
  0.3132197509219181  0.1028164908828397  0.0642992268726990
  0.1410314662167328  0.2454177454084986  0.0452485410745722
  0.2175019075776584  0.4676514995840345  0.0403407904191253
  0.2527764901943150  0.8220187352512972  0.0973752985963543
  0.4770833361717427  0.2772179066158508  0.0555571259572884
  0.4582834845551286  0.8216822526023281  0.0050254644644673
  0.1607850230679342  0.6802223309854423  0.0381495825335738
  0.4144175545554081  0.9743454117613344  0.0658161062465775
  0.0176414828169058  0.7270662245352675  0.0760364214957220
  0.8684165053333963  0.7472011483240956  0.0700991517716369
  0.7020919895441543  0.9290199878736037  0.0741327248132491
  0.5278673967170374  0.7341097526867594  0.0872810949821251
  0.2216809072431198  0.9603947114211839  0.0511078722223808
  0.9324924097503656  0.6114209738427522  0.0340268717208752
  0.9387670410212104  0.4553284386737174  0.0349280300611052
  0.5951331952505607  0.9623951321719940  0.0943058094016283
  0.7988922577096976  0.9707921247684630  0.0642958475773603
  0.7779763445674935  0.1023947277868004  0.0082935774898733
  0.2161537223830113  0.1562167692644114  0.0686689220318044
  0.9847121490552990  0.0367069281949298  0.0533822348616668
  0.9957098654902784  0.2826760912382026  0.0477690666573922
  0.9328660006993764  0.3992791218507830  0.0938773786946376
  0.1175396978367272  0.9371727790283386  0.0357132930949783
  0.6351781827637223  0.1409747246563374  0.0617723895213996
  0.5323662000536479  0.5294667551609519  0.5735549134379616
  0.5323211410140113  0.5294676621946054  0.6338729427518580
  0.5323154735906818  0.6257353014822742  0.5735978807144324
  0.4360226577449925  0.5294511796128579  0.5735935673894805
  0.6286640950917147  0.5294659049371039  0.5735398222806981
  0.5322494250009782  0.4332415186518715  0.5736673845702182
  0.5324143870927757  0.5294903704617342  0.5133299519611086
 
  0.00000000E+00  0.00000000E+00  0.00000000E+00
  0.00000000E+00  0.00000000E+00  0.00000000E+00
  0.00000000E+00  0.00000000E+00  0.00000000E+00
  0.00000000E+00  0.00000000E+00  0.00000000E+00
  0.00000000E+00  0.00000000E+00  0.00000000E+00
  0.00000000E+00  0.00000000E+00  0.00000000E+00
  0.00000000E+00  0.00000000E+00  0.00000000E+00
  0.00000000E+00  0.00000000E+00  0.00000000E+00
  0.00000000E+00  0.00000000E+00  0.00000000E+00
  0.00000000E+00  0.00000000E+00  0.00000000E+00
  0.00000000E+00  0.00000000E+00  0.00000000E+00
  0.00000000E+00  0.00000000E+00  0.00000000E+00
  0.00000000E+00  0.00000000E+00  0.00000000E+00
  0.00000000E+00  0.00000000E+00  0.00000000E+00
  0.00000000E+00  0.00000000E+00  0.00000000E+00
  0.00000000E+00  0.00000000E+00  0.00000000E+00
  0.00000000E+00  0.00000000E+00  0.00000000E+00
  0.00000000E+00  0.00000000E+00  0.00000000E+00
  0.00000000E+00  0.00000000E+00  0.00000000E+00
  0.00000000E+00  0.00000000E+00  0.00000000E+00
  0.00000000E+00  0.00000000E+00  0.00000000E+00
  0.00000000E+00  0.00000000E+00  0.00000000E+00
  0.00000000E+00  0.00000000E+00  0.00000000E+00
  0.00000000E+00  0.00000000E+00  0.00000000E+00
  0.00000000E+00  0.00000000E+00  0.00000000E+00
  0.00000000E+00  0.00000000E+00  0.00000000E+00
  0.00000000E+00  0.00000000E+00  0.00000000E+00
  0.00000000E+00  0.00000000E+00  0.00000000E+00
  0.00000000E+00  0.00000000E+00  0.00000000E+00
  0.00000000E+00  0.00000000E+00  0.00000000E+00
  0.00000000E+00  0.00000000E+00  0.00000000E+00
  0.00000000E+00  0.00000000E+00  0.00000000E+00
  0.00000000E+00  0.00000000E+00  0.00000000E+00
  0.00000000E+00  0.00000000E+00  0.00000000E+00
  0.00000000E+00  0.00000000E+00  0.00000000E+00
  0.00000000E+00  0.00000000E+00  0.00000000E+00
  0.00000000E+00  0.00000000E+00  0.00000000E+00
  0.00000000E+00  0.00000000E+00  0.00000000E+00
  0.00000000E+00  0.00000000E+00  0.00000000E+00
  0.00000000E+00  0.00000000E+00  0.00000000E+00
  0.00000000E+00  0.00000000E+00  0.00000000E+00
  0.00000000E+00  0.00000000E+00  0.00000000E+00
  0.00000000E+00  0.00000000E+00  0.00000000E+00
  0.00000000E+00  0.00000000E+00  0.00000000E+00
  0.00000000E+00  0.00000000E+00  0.00000000E+00
  0.00000000E+00  0.00000000E+00  0.00000000E+00
  0.00000000E+00  0.00000000E+00  0.00000000E+00
  0.00000000E+00  0.00000000E+00  0.00000000E+00
  0.00000000E+00  0.00000000E+00  0.00000000E+00
  0.00000000E+00  0.00000000E+00  0.00000000E+00
  0.00000000E+00  0.00000000E+00  0.00000000E+00
  0.00000000E+00  0.00000000E+00  0.00000000E+00
  0.00000000E+00  0.00000000E+00  0.00000000E+00
  0.00000000E+00  0.00000000E+00  0.00000000E+00
  0.00000000E+00  0.00000000E+00  0.00000000E+00
  0.00000000E+00  0.00000000E+00  0.00000000E+00
  0.00000000E+00  0.00000000E+00  0.00000000E+00
  0.00000000E+00  0.00000000E+00  0.00000000E+00
  0.00000000E+00  0.00000000E+00  0.00000000E+00
  0.00000000E+00  0.00000000E+00  0.00000000E+00
  0.00000000E+00  0.00000000E+00  0.00000000E+00
  0.00000000E+00  0.00000000E+00  0.00000000E+00
  0.00000000E+00  0.00000000E+00  0.00000000E+00
  0.00000000E+00  0.00000000E+00  0.00000000E+00
  0.00000000E+00  0.00000000E+00  0.00000000E+00
  0.00000000E+00  0.00000000E+00  0.00000000E+00
  0.00000000E+00  0.00000000E+00  0.00000000E+00
  0.00000000E+00  0.00000000E+00  0.00000000E+00
  0.00000000E+00  0.00000000E+00  0.00000000E+00
  0.00000000E+00  0.00000000E+00  0.00000000E+00
  0.00000000E+00  0.00000000E+00  0.00000000E+00
  0.00000000E+00  0.00000000E+00  0.00000000E+00
  0.00000000E+00  0.00000000E+00  0.00000000E+00
  0.00000000E+00  0.00000000E+00  0.00000000E+00
  0.00000000E+00  0.00000000E+00  0.00000000E+00
  0.00000000E+00  0.00000000E+00  0.00000000E+00
  0.00000000E+00  0.00000000E+00  0.00000000E+00
  0.00000000E+00  0.00000000E+00  0.00000000E+00
  0.00000000E+00  0.00000000E+00  0.00000000E+00
  0.00000000E+00  0.00000000E+00  0.00000000E+00
  0.00000000E+00  0.00000000E+00  0.00000000E+00
  0.00000000E+00  0.00000000E+00  0.00000000E+00
  0.00000000E+00  0.00000000E+00  0.00000000E+00
  0.00000000E+00  0.00000000E+00  0.00000000E+00
  0.00000000E+00  0.00000000E+00  0.00000000E+00
  0.00000000E+00  0.00000000E+00  0.00000000E+00
  0.00000000E+00  0.00000000E+00  0.00000000E+00
  0.00000000E+00  0.00000000E+00  0.00000000E+00