 O Si  H Mo  C  O                       
   1.00000000000000     
    21.3948993682999991    0.0000000000000000    0.0000000000000000
     0.0000000000000000   21.3948993682999991    0.0000000000000000
     0.0000000000000000    0.0000000000000000   34.1699981689000012
   O    Si   H    Mo   C 
   239   102    64     1     3
Selective dynamics
Direct
  0.2807419159792914  0.7111705883146442  0.1014531696786776   F   F   F
  0.6100493972512382  0.6279707156597851  0.2026685007868352   F   F   F
  0.1497909981304630  0.3906914003819253  0.0912219555979021   F   F   F
  0.3812969538043802  0.4408968557224426  0.1421860129741717   F   F   F
  0.6784109435572958  0.8499511824116297  0.1351922645739307   F   F   F
  0.1042122172104527  0.4687837311909604  0.3533002543025887   F   F   F
  0.0041827465352000  0.7584817738704572  0.3020435419512069   F   F   F
  0.6611536598784653  0.1458287459924392  0.1977985536915341   F   F   F
  0.2151826757308086  0.9166185776359725  0.2056051084313282   F   F   F
  0.8425782831100008  0.5368502393813657  0.1024717832343995   F   F   F
  0.4103666466697717  0.7693441183136471  0.2078602618911987   F   F   F
  0.5176186849598068  0.5520523449983870  0.2237823355694815   F   F   F
  0.1151910359237576  0.5129062581445964  0.2158372125669601   F   F   F
  0.5867574313192137  0.5076753061045878  0.3371186846890026   F   F   F
  0.4381591236680933  0.6501628330163882  0.2230534105236117   F   F   F
  0.1250305453688014  0.4189774821575014  0.2814214440933256   F   F   F
  0.5206536544797302  0.7416631269526164  0.2343796149707629   F   F   F
  0.3185090154262014  0.9833258514068035  0.1993999482559801   F   F   F
  0.3237315670047991  0.8582878526996325  0.1904766449235211   F   F   F
  0.8116896552420556  0.8740171024937595  0.2738943434669423   F   F   F
  0.9783472062041909  0.2464571728303255  0.3109239388253684   F   F   F
  0.9864510765455705  0.0415659748609585  0.2921578868698802   F   F   F
  0.0028701008313448  0.0217461968777783  0.1774823929978311   F   F   F
  0.0984551817868464  0.2964085220219346  0.1268589204303723   F   F   F
  0.5982098518193766  0.7391606409113791  0.2944764357818883   F   F   F
  0.4285493963926825  0.5833888802956793  0.3386906577067563   F   F   F
  0.8009245772528075  0.3286436633117589  0.1654117759129292   F   F   F
  0.0668208046950767  0.2045522082630882  0.2632193680651298   F   F   F
  0.5199865180402270  0.6900390775941929  0.0872803822404435   F   F   F
  0.1534800712419297  0.6141923907578075  0.2514510740339873   F   F   F
  0.5541189394077790  0.1807612027425094  0.2325917238168955   F   F   F
  0.7190304636675577  0.4153999714758001  0.1926551513745309   F   F   F
  0.5096241045605510  0.9504965087301969  0.1224322347830906   F   F   F
  0.2535301071521943  0.8627962742444595  0.1094354264156081   F   F   F
  0.6281242159416536  0.7506653227122371  0.1747335798262242   F   F   F
  0.7431442238134451  0.9075113537722075  0.0790966863403497   F   F   F
  0.6906834462571254  0.8546988113062852  0.2790319877685334   F   F   F
  0.7208349499501949  0.6812200153976349  0.2004543537446608   F   F   F
  0.2239053798560136  0.2852081357465224  0.1820481650956154   F   F   F
  0.1124157986219458  0.0616694555431394  0.1029514797527398   F   F   F
  0.5656865288209048  0.1885198068411995  0.3228531601888918   F   F   F
  0.7746017366642164  0.6706889256366466  0.3480210288006873   F   F   F
  0.2123603352406533  0.2888182084602704  0.2588423984814270   F   F   F
  0.6134442858935216  0.5372672185767300  0.1303720221923754   F   F   F
  0.3330074042840820  0.4669956263895685  0.2117005705266450   F   F   F
  0.3167232891264788  0.3356615477101741  0.1408467927927148   F   F   F
  0.3026995143378670  0.9719832159220942  0.1223650263478575   F   F   F
  0.4970933809722737  0.5860468298198427  0.1253234896041135   F   F   F
  0.8686690289947165  0.4626749097138827  0.3028724713398674   F   F   F
  0.5901964902946162  0.0688679707482720  0.2938378972086539   F   F   F
  0.4637708929537112  0.1383924266413104  0.1853224898656904   F   F   F
  0.4823709063282635  0.7918342282817648  0.3034131234482942   F   F   F
  0.5165363633200784  0.4176541765062893  0.3055645579850577   F   F   F
  0.0998760884429899  0.8427834494249709  0.3046972698429045   F   F   F
  0.3106508717931291  0.4132482271202988  0.2780638615830924   F   F   F
  0.7800454068323361  0.1342405013084331  0.3411277535522217   F   F   F
  0.4888259963563826  0.7005148236944478  0.1619334394489869   F   F   F
  0.9908275688338790  0.8966812994095363  0.1710562717388697   F   F   F
  0.8791792030459717  0.7334217749124647  0.3281168771673748   F   F   F
  0.6082534231432035  0.5755132196885171  0.2729577037650017   F   F   F
  0.7953835864612273  0.8251585374229293  0.1274399204050383   F   F   F
  0.8892418487697640  0.3359229290547390  0.3100600040569788   F   F   F
  0.8206837145378003  0.4607040893123440  0.1627900133228479   F   F   F
  0.6405645109500853  0.2655745360925295  0.2270437149480102   F   F   F
  0.9043823995833336  0.8142129663214703  0.1579091744862282   F   F   F
  0.8713243270616289  0.0884799100677256  0.2977060284989577   F   F   F
  0.4454973697138058  0.9123500428984741  0.3158680121153878   F   F   F
  0.1062716810592974  0.0594516001933343  0.3073907265815592   F   F   F
  0.0340874019990522  0.4244756763198154  0.2258074290514713   F   F   F
  0.5680975583333918  0.8478435792411290  0.2629907453587066   F   F   F
  0.0031475261787435  0.1327057936524838  0.2139567051183988   F   F   F
  0.2177781534243763  0.2874502583527914  0.1046198272068324   F   F   F
  0.4389990973480593  0.8689193199373335  0.1640650136429826   F   F   F
  0.4120471636694703  0.0074433868840060  0.1519326687197520   F   F   F
  0.1246194639101930  0.1268051724919843  0.2148775653914683   F   F   F
  0.1024019634458071  0.9420242282091777  0.1770055849144612   F   F   F
  0.3038388130665197  0.9020130552291405  0.2598557849981944   F   F   F
  0.3615661057926900  0.7782846832101171  0.1390024729756121   F   F   F
  0.5897600410148627  0.0482621460007664  0.2164053414472704   F   F   F
  0.3171964732252093  0.0865052831203883  0.1512616825029909   F   F   F
  0.4106317815563898  0.3514563002378495  0.2500706847997023   F   F   F
  0.5166418351789090  0.2082939512237445  0.1314863241002939   F   F   F
  0.6960946710805729  0.3280659384019842  0.0618088863406214   F   F   F
  0.8389624902576642  0.7090266105310263  0.1511878251256675   F   F   F
  0.8353723445992713  0.6728948314319680  0.2264189140715658   F   F   F
  0.6211018760288809  0.2576010041529244  0.1061391483809615   F   F   F
  0.3787033817555567  0.7668303040974465  0.0653646898439533   F   F   F
  0.4206275161508870  0.0362764263218693  0.3056305395184467   F   F   F
  0.3170729622381998  0.5459389294989663  0.3151119759940784   F   F   F
  0.2456281317093527  0.1266290466813800  0.2147247940605439   F   F   F
  0.7380382231206326  0.5498074807889495  0.1448486995196561   F   F   F
  0.6310517971675296  0.0645392294343949  0.1433586554780462   F   F   F
  0.8121277024041689  0.9630711139597423  0.2187702641563973   F   F   F
  0.1673155563636968  0.3647159286838786  0.3466359835783948   F   F   F
  0.2428528041002664  0.6942249931088398  0.3149526735584587   F   F   F
  0.0417825257654769  0.7202659116246721  0.1513686762365936   F   F   F
  0.6646112871448722  0.6498350237650570  0.1349799495464481   F   F   F
  0.7069904137606500  0.0251252096982455  0.2005473561985269   F   F   F
  0.6456088514354974  0.8668060617690543  0.2063124398975162   F   F   F
  0.4112034753979117  0.3537055506281988  0.0889375630265832   F   F   F
  0.5198802940366249  0.2634180698577211  0.0604413283728533   F   F   F
  0.9060798769187386  0.8785769445350056  0.2251472431168935   F   F   F
  0.5295548470383054  0.3362828418802053  0.1226820326504310   F   F   F
  0.4043626938132334  0.1586801145544712  0.1180228088693696   F   F   F
  0.7645332259636319  0.7684831533716618  0.2473785606762959   F   F   F
  0.6345267696148014  0.9813557661276775  0.0857742724839170   F   F   F
  0.2166498968538662  0.4716582327919241  0.3232322991270493   F   F   F
  0.0541653738565202  0.6791546901480530  0.2227029241293366   F   F   F
  0.8883934189970120  0.9676574903037150  0.2795766920824079   F   F   F
  0.1874284944611162  0.0315284111333440  0.1809325056998361   F   F   F
  0.3371034365445453  0.0906102787709386  0.2616927741657165   F   F   F
  0.0416954431285461  0.6165293931232441  0.2890764305871301   F   F   F
  0.9182646796708696  0.1119475742767193  0.1602368003384242   F   F   F
  0.4492245628961697  0.1415319012471414  0.2621391137352589   F   F   F
  0.1819915576394493  0.1392451775479202  0.1458613815913736   F   F   F
  0.1330296486446088  0.9892797363378492  0.2447925291843518   F   F   F
  0.3206526066197597  0.8840564723543665  0.3359962465834556   F   F   F
  0.2968648207445312  0.1379348340877300  0.0802720768140830   F   F   F
  0.8648879945376251  0.2718747249652935  0.1087944147069919   F   F   F
  0.8829469920831983  0.7613314087699763  0.0879241580567864   F   F   F
  0.1151951153436173  0.7182226748427922  0.2863012795821476   F   F   F
  0.4739845458881220  0.8384344221040791  0.0925167597839263   F   F   F
  0.4329507632476250  0.0135256859953188  0.0732163792876293   F   F   F
  0.2192202300105635  0.8407213358190120  0.3045055720477379   F   F   F
  0.8082972962915562  0.0622675408343270  0.1688323999474335   F   F   F
  0.9426668082588421  0.6707420639353359  0.1876845289757654   F   F   F
  0.3246647100606523  0.2886588232554672  0.2914931617319851   F   F   F
  0.9147162640883977  0.0537427898680178  0.2286979886867186   F   F   F
  0.7985938705297997  0.5637321088997922  0.3096412327739912   F   F   F
  0.3574523242956502  0.6603481406675016  0.2934465653793694   F   F   F
  0.5053622290304460  0.2997152737957052  0.3353543900958869   F   F   F
  0.6597515806188383  0.1208940727580199  0.3476201288545013   F   F   F
  0.9194230121276163  0.5788563035912944  0.2931208511162211   F   F   F
  0.9687121795604341  0.5485278334055934  0.1016558769191604   F   F   F
  0.5111574815873894  0.9875135974459468  0.2656980860597855   F   F   F
  0.4005209639939409  0.6668089220857283  0.1115429678259261   F   F   F
  0.3834756137714521  0.1458304449617600  0.3281222659962921   F   F   F
  0.4779303209322592  0.3673127867845380  0.1872257457537998   F   F   F
  0.0228022850792939  0.5041647294024543  0.1644958659934517   F   F   F
  0.0795258774215881  0.4926286247211777  0.0952778376899630   F   F   F
  0.2050514564383121  0.5798993987403449  0.1837799633819586   F   F   F
  0.9808876401850739  0.2548010498748923  0.1338529355208209   F   F   F
  0.1919831596790829  0.4885342702528277  0.1304799005061668   F   F   F
  0.3652776212437701  0.8936539251060012  0.0756843858664382   F   F   F
  0.3053256578484493  0.5358504590160464  0.1484508740442294   F   F   F
  0.7402536350048265  0.4038231892686071  0.1163299456713602   F   F   F
  0.1541428484936347  0.6973487931083255  0.1178891923583407   F   F   F
  0.5664234469555964  0.6330574985465347  0.3353607460307941   F   F   F
  0.6177660641973262  0.2983134828748604  0.3017727306902316   F   F   F
  0.4537407624027594  0.2487650639859353  0.2180949903315081   F   F   F
  0.2623502322664066  0.1803967971888127  0.2828036791139397   F   F   F
  0.6840111510331184  0.5886764994686260  0.3330911789139108   F   F   F
  0.5338493275580234  0.3281132468331833  0.2499825025424300   F   F   F
  0.4022610264587527  0.3687618225242204  0.3254518552393364   F   F   F
  0.2990358832938114  0.2119537799450057  0.1413828734123115   F   F   F
  0.6002249306165481  0.3936368222785163  0.1765723599504554   F   F   F
  0.5374203567353675  0.5110170907055434  0.0692118559193844   F   F   F
  0.2378091237135891  0.3935720901151001  0.2178473508107430   F   F   F
  0.6405502549347020  0.3877236887508673  0.2487501336007298   F   F   F
  0.0374536947505462  0.9639143655229105  0.1128224934617634   F   F   F
  0.8503436574953227  0.5868120666141365  0.1718989117534520   F   F   F
  0.6891895584452286  0.5714394662430351  0.0740587434480418   F   F   F
  0.6304087019427485  0.5008435842628387  0.2138612515227720   F   F   F
  0.0712366323789766  0.1751599987430481  0.1169675064808047   F   F   F
  0.9075954031920830  0.2639133882532860  0.3746918420633918   F   F   F
  0.8353728979713537  0.1175929819851973  0.1022701718485948   F   F   F
  0.5000188751989469  0.0797600011118860  0.1218728182708588   F   F   F
  0.6295678467419492  0.9564856290624419  0.2620732421275491   F   F   F
  0.2272807775059533  0.6005689258395606  0.1071737541189179   F   F   F
  0.0668049217923681  0.2291110623758996  0.1875256557020819   F   F   F
  0.7626675884479539  0.9435746378928371  0.1514978624149848   F   F   F
  0.8215054894506082  0.1943644884888442  0.1630707728164253   F   F   F
  0.2237599107454216  0.2593834316735339  0.3342564384260598   F   F   F
  0.0253405967430282  0.1109881129333630  0.3538317669127125   F   F   F
  0.7251464102247382  0.0625902273598058  0.0937641244541396   F   F   F
  0.3057689477234362  0.4147340666737733  0.0803633680282445   F   F   F
  0.7678972286032604  0.7903256098189644  0.3243738751329346   F   F   F
  0.0720163116586434  0.6042523247789262  0.1286927026506888   F   F   F
  0.8607511016908660  0.2129371260191846  0.3120052171678651   F   F   F
  0.1273467228300831  0.3456170169075676  0.2170710192080065   F   F   F
  0.0418358477503773  0.3273918140476155  0.2718613599444168   F   F   F
  0.6584738307930280  0.1666954644510668  0.2734507044930155   F   F   F
  0.2303227200361633  0.5092138369737640  0.2460527549630243   F   F   F
  0.7374999630103289  0.6541526569677600  0.2747774367075806   F   F   F
  0.7424788404785190  0.2514371995781772  0.1167275249577031   F   F   F
  0.0081612739707211  0.5001416688353686  0.3094518597516398   F   F   F
  0.2166014765786173  0.5868386399856007  0.3543176005262865   F   F   F
  0.3217976934440259  0.7827906625838637  0.2864212207997170   F   F   F
  0.0990958867745562  0.2625260782885448  0.3279421756569150   F   F   F
  0.4077370172576522  0.5545320590446963  0.2636825065088075   F   F   F
  0.7379207579464335  0.0208582812406704  0.3539771674265850   F   F   F
  0.4144878620862329  0.5430934381303487  0.1848605952310720   F   F   F
  0.0487446554759714  0.6935881555869230  0.0757078774308155   F   F   F
  0.9958321746320280  0.5404260148754005  0.2358070605085842   F   F   F
  0.5167584040276694  0.4613680936229656  0.1398335789757326   F   F   F
  0.9882106832498607  0.7847364209723793  0.2089174355304166   F   F   F
  0.1711612814905621  0.9537842016609375  0.3126412923913193   F   F   F
  0.5589008442912444  0.8450920397227932  0.1499139941658143   F   F   F
  0.2207382146828181  0.0596019734737538  0.2799326402651943   F   F   F
  0.3420973723016232  0.7294427094062641  0.3566829763036310   F   F   F
  0.2905670337261768  0.4958380551750423  0.3840123577203443   F   F   F
  0.4896170976545662  0.4074505423354964  0.3772438521780472   F   F   F
  0.1525311482999356  0.2753859810256074  0.3981829588186301   F   F   F
  0.6068260315568352  0.2648098352740433  0.3773282421864579   F   F   F
  0.7280334017779424  0.1043396880740062  0.4116198813991261   F   F   F
  0.8996460962898922  0.1333605118757433  0.3676474693653873   F   F   F
  0.8195963674610809  0.7623732422877509  0.3934391554346419   F   F   F
  0.8808803119219490  0.5396517117848632  0.3646788292754337   F   F   F
  0.8694025712900668  0.4046118505033220  0.3717782598370363   F   F   F
  0.7747957602766959  0.3881447311339556  0.3175726138681156   F   F   F
  0.0082009082865753  0.5372995356121493  0.3819220367251930   F   F   F
  0.9972794461270595  0.4125130271220598  0.3663269871115986   F   F   F
  0.5455344803992830  0.8658039590828750  0.3537307364252555   F   F   F
  0.0957075236081835  0.7585196675936530  0.3593935236273964   F   F   F
  0.1560828906469069  0.8789580439919860  0.3710922072249119   F   F   F
  0.0343237606232023  0.9821935615118846  0.3512849214901621   F   F   F
  0.4308212475951763  0.8237624354481810  0.3712517098389512   F   F   F
  0.5213785358866332  0.9930176180864407  0.3452625727768677   F   F   F
  0.6585082107728155  0.4450901075740390  0.0621147340529973   F   F   F
  0.7759883501229936  0.4207973015219011  0.0417710056401646   F   F   F
  0.6876310371864278  0.2037804984673173  0.0522419032957373   F   F   F
  0.1276883136280773  0.2873570188155909  0.0505025587052685   F   F   F
  0.1788961244810423  0.4944522577086374  0.0511795060501115   F   F   F
  0.4334254898098990  0.8502849511076533  0.0184305435082734   F   F   F
  0.2042220148824470  0.6787622406971039  0.0465539720134203   F   F   F
  0.2627532365365539  0.9484441095246297  0.0501722536579194   F   F   F
  0.9017026448703760  0.5805282882359819  0.0390040273057721   F   F   F
  0.9057490235990642  0.4600966641670610  0.0597909506166516   F   F   F
  0.8243462681895082  0.0105925358511527  0.0597073760653473   F   F   F
  0.7825528315014623  0.1228138009486273  0.0342377964239091   F   F   F
  0.1691233586183500  0.1620452404561661  0.0696765557039498   F   F   F
  0.0251884785525789  0.0299588868082239  0.0471761281186147   F   F   F
  0.1294941044492646  0.9663388925507874  0.0572692131567649   F   F   F
  0.9544874050779839  0.2795478947185188  0.0574012999461218   F   F   F
  0.9459002618610342  0.3682585283699424  0.1149039183371769   F   F   F
  0.6128411384857060  0.1022148764299970  0.0685130882585625   F   F   F
  0.5549760029714861  0.6333698031400985  0.4174467145967000   T   T   T
  0.6859645951145410  0.4904173088585608  0.4373582336268029   T   T   T
  0.5040832232557335  0.4688354731528293  0.4858270349289810   T   T   T
  0.3540696832479426  0.3861034067035618  0.1135586947021849   F   F   F
  0.2159843681399067  0.6721537155406807  0.0935515007969201   F   F   F
  0.3161571930415832  0.7176412157115664  0.3115288135223864   F   F   F
  0.3552006478562078  0.7276250420660304  0.1042885184543536   F   F   F
  0.2933085013587586  0.8532869696099539  0.2962602740978966   F   F   F
  0.4445397323576046  0.5746342802748572  0.2239330083193067   F   F   F
  0.3979339114825464  0.1040085837935791  0.2891366479510680   F   F   F
  0.6294574316440560  0.1895574222336691  0.2313882539362595   F   F   F
  0.9160714048906158  0.0383346162112872  0.2754224295837702   F   F   F
  0.0768245726951875  0.7710481501608442  0.3129815414753807   F   F   F
  0.8094755897630037  0.7390237449378034  0.3485254462942677   F   F   F
  0.8129494338190852  0.5331854152365025  0.1467405841086773   F   F   F
  0.4119639191726279  0.8360722137335017  0.0632901652225684   F   F   F
  0.5316039153096384  0.3914550338728162  0.1562664414939121   F   F   F
  0.4768413256818889  0.3708736928371934  0.3347978907599582   F   F   F
  0.6537175267296362  0.6788627033127526  0.1788263270803014   F   F   F
  0.4649323928225186  0.7158466122104130  0.2066344076861029   F   F   F
  0.7718641238818620  0.4001216660733675  0.1593576212139212   F   F   F
  0.8540706295031129  0.7774070486221660  0.1315206219169198   F   F   F
  0.8545586645409742  0.9209858859582383  0.2484703679867266   F   F   F
  0.8678349844757278  0.5361112561664569  0.3173257770190432   F   F   F
  0.6184019013947193  0.1359875814593892  0.3092956019056459   F   F   F
  0.7738385451834588  0.9985542912647603  0.1843611096720466   F   F   F
  0.5924289616676148  0.5644869756972355  0.2271327070422515   F   F   F
  0.6121879529580241  0.5757786077291982  0.3199778842905729   F   F   F
  0.9604325338290280  0.0791335617460405  0.1944066608351491   F   F   F
  0.3292979261147480  0.1483439756125051  0.1238623570745858   F   F   F
  0.2905387510139690  0.9154816242471497  0.2137963890405885   F   F   F
  0.7452813630540618  0.8823362361099427  0.1247394142912484   F   F   F
  0.7643627359083496  0.6942128286559495  0.2381395402568245   F   F   F
  0.9477062338464322  0.8441807582342022  0.1918366169717984   F   F   F
  0.7267764141260074  0.0945808442140077  0.3641110641145673   F   F   F
  0.1610239918379293  0.8802936782759545  0.3232564510397253   F   F   F
  0.0746977331174392  0.0063722338774568  0.0805348277300268   F   F   F
  0.4681310661915603  0.3224261284633130  0.2251455936234024   F   F   F
  0.0472699790992337  0.2598465529003349  0.2933954065606699   F   F   F
  0.4794439625119367  0.1769304905663134  0.2248244321724755   F   F   F
  0.2009076508036856  0.3276919537206666  0.2184688313335457   F   F   F
  0.0910868393816813  0.6565260631699275  0.2618771064353353   F   F   F
  0.1339280261180917  0.1340241727029863  0.1084411394943814   F   F   F
  0.0418839033561582  0.4956639351372587  0.2099538776017624   F   F   F
  0.3837789050948075  0.8192375556715064  0.1760985418130119   F   F   F
  0.4736608587303621  0.9822802241155344  0.3076914441320540   F   F   F
  0.6337904185067060  0.8815449099726109  0.2527868491256058   F   F   F
  0.2645986280376960  0.2799224030895289  0.1418034153768559   F   F   F
  0.6496538766949840  0.0549168260081032  0.0973489476890421   F   F   F
  0.5812221688363621  0.0152129030451817  0.2590669069484832   F   F   F
  0.1512012866406209  0.4659890477371036  0.0920879768219294   F   F   F
  0.5407765751952880  0.5245244860620488  0.1160485888247393   F   F   F
  0.4636194513213923  0.0128193498161835  0.1170473161449479   F   F   F
  0.8081025349217228  0.2619145917741577  0.1397436572761066   F   F   F
  0.6883636830877435  0.2611208310886681  0.0839147270859186   F   F   F
  0.5733233040560322  0.2626630186457817  0.3343850362183574   F   F   F
  0.4765667639811610  0.8475219197722978  0.3366845630255639   F   F   F
  0.0655061813609308  0.1737328973476124  0.2199913694087314   F   F   F
  0.1585167927271840  0.0161518806280228  0.2864866923800946   F   F   F
  0.8445213305070141  0.1229025299737927  0.1497164136618991   F   F   F
  0.9916783284757571  0.5598273346137361  0.2817662998233175   F   F   F
  0.2947086525313480  0.9180208861109804  0.0890578785168117   F   F   F
  0.8529461105685243  0.1415840633411349  0.3292480449115089   F   F   F
  0.2596565733592016  0.5261586474241398  0.3443304332965980   F   F   F
  0.0328837711071444  0.9570912415014661  0.1603599517723069   F   F   F
  0.1601191809639460  0.9691138203778422  0.2022626371111187   F   F   F
  0.2649078113546821  0.1134778576384505  0.2601862337496144   F   F   F
  0.0363260867682058  0.5373567646494095  0.1225955777537706   F   F   F
  0.7918972104669422  0.0763884010769829  0.0727714644155739   F   F   F
  0.3599759437285002  0.3561781348350976  0.2857716977294587   F   F   F
  0.0795302465522880  0.6788978404992463  0.1190587615973442   F   F   F
  0.1851080202829039  0.1064842268666908  0.1889163348361009   F   F   F
  0.2764579934180844  0.4478060964906447  0.2402173121009028   F   F   F
  0.1488091963970888  0.3154345761510697  0.0930614990902399   F   F   F
  0.5418394410266316  0.7785421180885947  0.2743530169757165   F   F   F
  0.2555998782443325  0.2541471544752127  0.2913411807578115   F   F   F
  0.7189093908949644  0.3995131003324914  0.0704283473924860   F   F   F
  0.8672645088009219  0.6593683366643930  0.1837434228201431   F   F   F
  0.4956129706903383  0.8759821315124512  0.1325401492367249   F   F   F
  0.3777053849406684  0.5873648422326738  0.3030556775563866   F   F   F
  0.6481971548087628  0.4271692453897273  0.2073772767313287   F   F   F
  0.8496570064022464  0.3970817222636711  0.3246480530642799   F   F   F
  0.7586163764404645  0.8216426728004151  0.2814001024468524   F   F   F
  0.6275734253394276  0.8266326483295430  0.1673639088170589   F   F   F
  0.6099637510291771  0.3189784909949154  0.2559345488890443   F   F   F
  0.4725117250129216  0.1467261512982958  0.1381586102115762   F   F   F
  0.5461159052667881  0.2655391700668730  0.1051465627950421   F   F   F
  0.4763979426273011  0.6596608229062610  0.1217450456104672   F   F   F
  0.0292688538051422  0.4781050892280660  0.3531185561311290   F   F   F
  0.9099593477207151  0.2668854358404928  0.3262752499527295   F   F   F
  0.0375764665672591  0.0487764153229975  0.3274562788294944   F   F   F
  0.3364521498937378  0.0126383187650276  0.1565626190187430   F   F   F
  0.3586393752794024  0.4964782398429008  0.1713734524354962   F   F   F
  0.1592466450550916  0.2897545385051075  0.3515429965595942   F   F   F
  0.1532789111141284  0.4308359353337821  0.3254080084594335   F   F   F
  0.6767485436841838  0.5773478528748726  0.1216185933938689   F   F   F
  0.2317718346181437  0.5508406539022985  0.1427231813592371   F   F   F
  0.1770073403464707  0.5538988380285659  0.2251761033741388   F   F   F
  0.0054735899652343  0.7141699800027155  0.1934580833389319   F   F   F
  0.7485934026906591  0.6196909490987821  0.3166867875320989   F   F   F
  0.9373817531586255  0.2946683778052162  0.1033397973681929   F   F   F
  0.6487379846554617  0.0706198175672839  0.1889494572496915   F   F   F
  0.0827277160122293  0.3797251265004391  0.2494135706171434   F   F   F
  0.9061608946895916  0.5333423188455484  0.0765171174960102   F   F   F
  0.0540811232225380  0.2393739480916892  0.1411411470779953   F   F   F
  0.7295803166032329  0.5847495282385395  0.0640709268309507   F   F   F
  0.5674419120414242  0.4798227162803741  0.0598987118197627   F   F   F
  0.3244092667210481  0.4145161308112648  0.0544430363938204   F   F   F
  0.4532494348155254  0.3539413385161509  0.1003598377595623   F   F   F
  0.4668131760725061  0.6080370987709003  0.3369316456630358   F   F   F
  0.5659641124906472  0.6422852775214309  0.3637584403754204   F   F   F
  0.5646390760766735  0.4781413740753067  0.3193556162299416   F   F   F
  0.2086537773033257  0.7148559229869846  0.3010437805886710   F   F   F
  0.3104443840787994  0.7356227606444321  0.3766631700747993   F   F   F
  0.2234641662565409  0.6253069146575214  0.3388434957179527   F   F   F
  0.2689497165412078  0.4608192669566904  0.3958194742362764   F   F   F
  0.5258984092352890  0.3983053101974079  0.2801346716219868   F   F   F
  0.4611768398296618  0.3994963760301218  0.3988831721733277   F   F   F
  0.1367493349017010  0.2345840269991655  0.4055784674266434   F   F   F
  0.5865091222278949  0.7022571076066626  0.3101370733976125   F   F   F
  0.6118792306836340  0.3048066010734658  0.3903357745416116   F   F   F
  0.3769416151678300  0.1903219773632330  0.3243747337933272   F   F   F
  0.7045976272452279  0.1392422071034787  0.4222309861050775   F   F   F
  0.9014280095477147  0.1711776413882831  0.3838755844735786   F   F   F
  0.8933587598687396  0.6925730594990114  0.3193296279375559   F   F   F
  0.7831612777767276  0.7735400992887165  0.4087490821839523   F   F   F
  0.9241553991531575  0.5460845346407552  0.3738305937780311   F   F   F
  0.7561642757735783  0.3471414604272951  0.3207126033272516   F   F   F
  0.8590781119953803  0.4458381104979239  0.3825997826889846   F   F   F
  0.0231579651429215  0.5368183149008487  0.4087429947361301   F   F   F
  0.9513517185895353  0.4110769441409730  0.3699481147716881   F   F   F
  0.9676788863427035  0.7718272386617215  0.3169208770236693   F   F   F
  0.0947089116816571  0.7156507797047880  0.3686665983447170   F   F   F
  0.1386874541211327  0.8397495067654006  0.3809272805941362   F   F   F
  0.9813144021353679  0.1184437008803201  0.3611326928004246   F   F   F
  0.0668757228940038  0.9723415413503886  0.3701071758870640   F   F   F
  0.5509340981812372  0.9108731578853408  0.3577269930469953   F   F   F
  0.3997939324121376  0.7908516360124693  0.3659341033348156   F   F   F
  0.3627232155949116  0.9018533302125817  0.3350009574083046   F   F   F
  0.7226031324797830  0.9895500060380655  0.3720652890674430   F   F   F
  0.5505162023544301  0.0276443535556439  0.3420522519993128   F   F   F
  0.9216262634239740  0.3000276685768881  0.3894691927948131   F   F   F
  0.8184228994854763  0.4268781493367939  0.0515281866514385   F   F   F
  0.6701571572550264  0.4896757892393424  0.0606904545438240   F   F   F
  0.7263778809566617  0.1832548809663592  0.0431088181585721   F   F   F
  0.3132800893304051  0.1033789823816065  0.0648605149374717   F   F   F
  0.1396195615198579  0.2431435941343452  0.0478733617438252   F   F   F
  0.2229477209612725  0.4860823861825097  0.0467855954152867   F   F   F
  0.2511317362185181  0.8212477109229255  0.0982082952449375   F   F   F
  0.4771763099304067  0.2769115893874243  0.0556087147416733   F   F   F
  0.4511506089555652  0.8166678356829564  0.0030354254456952   F   F   F
  0.1625500177582211  0.6700649609230283  0.0367475267763524   F   F   F
  0.4126679931764556  0.9749955042205158  0.0646019034085441   F   F   F
  0.0137369052876082  0.7225470421501328  0.0760626161358360   F   F   F
  0.8748313084423032  0.7924464758117011  0.0678981101002378   F   F   F
  0.7036219706538631  0.9306639451036176  0.0746785809865784   F   F   F
  0.5226436224893973  0.7354388461534000  0.0871295150606244   F   F   F
  0.2182407358889193  0.9594023479396228  0.0527385260195459   F   F   F
  0.9263336557074879  0.6185519304017006  0.0401838676946582   F   F   F
  0.9307065487635597  0.4520881697965109  0.0365278321495239   F   F   F
  0.5949342883406175  0.9644449838602398  0.0954630692829568   F   F   F
  0.8001212795775245  0.9724193112180970  0.0656737301922163   F   F   F
  0.7819212944483311  0.1027474677945364  0.0087904803711112   F   F   F
  0.2150525669750110  0.1563671030421858  0.0696646744596663   F   F   F
  0.9824647032601845  0.0385095180073165  0.0551246207101670   F   F   F
  0.9981381736945210  0.2830283764007220  0.0497369596327033   F   F   F
  0.9310374157650543  0.3993303165918078  0.0960062421227406   F   F   F
  0.1141502163890848  0.9371881680547531  0.0377253235905002   F   F   F
  0.6349183890894636  0.1410888684486054  0.0610033648927555   F   F   F
  0.5534345365709399  0.4918830077285037  0.4011508568596440   T   T   T