 O Si  H Mo  C  O                       
   1.00000000000000     
    21.3948993682999991    0.0000000000000000    0.0000000000000000
     0.0000000000000000   21.3948993682999991    0.0000000000000000
     0.0000000000000000    0.0000000000000000   34.1699981689000012
   O    Si   H    Mo   C 
   239   102    64     1     3
Selective
Direct
0.2807419159792940 0.7111705883146454 0.1014531696786746  F  F  F
0.6100493972512366 0.6279707156597865 0.2026685007868318  F  F  F
0.1497909981304605 0.3906914003819246 0.0912219555979013  F  F  F
0.3812969538043791 0.4408968557224418 0.1421860129741682  F  F  F
0.6784109435572993 0.8499511824116306 0.1351922645739340  F  F  F
0.1042122172104535 0.4687837311909590 0.3533002543025891  F  F  F
0.0041827465352020 0.7584817738704608 0.3020435419512102  F  F  F
0.6611536598784660 0.1458287459924389 0.1977985536915350  F  F  F
0.2151826757308078 0.9166185776359748 0.2056051084313275  F  F  F
0.8425782831100028 0.5368502393813678 0.1024717832344025  F  F  F
0.4103666466697719 0.7693441183136466 0.2078602618911989  F  F  F
0.5176186849598062 0.5520523449983860 0.2237823355694840  F  F  F
0.1151910359237609 0.5129062581445955 0.2158372125669608  F  F  F
0.5867574313192104 0.5076753061045904 0.3371186846890026  F  F  F
0.4381591236680938 0.6501628330163883 0.2230534105236118  F  F  F
0.1250305453688038 0.4189774821575019 0.2814214440933261  F  F  F
0.5206536544797303 0.7416631269526146 0.2343796149707616  F  F  F
0.3185090154262026 0.9833258514068012 0.1993999482559829  F  F  F
0.3237315670047962 0.8582878526996306 0.1904766449235240  F  F  F
0.8116896552420542 0.8740171024937561 0.2738943434669424  F  F  F
0.9783472062041877 0.2464571728303268 0.3109239388253718  F  F  F
0.9864510765455695 0.0415659748609555 0.2921578868698818  F  F  F
0.0028701008313459 0.0217461968777772 0.1774823929978277  F  F  F
0.0984551817868457 0.2964085220219334 0.1268589204303691  F  F  F
0.5982098518193759 0.7391606409113772 0.2944764357818878  F  F  F
0.4285493963926812 0.5833888802956771 0.3386906577067555  F  F  F
0.8009245772528082 0.3286436633117623 0.1654117759129323  F  F  F
0.0668208046950781 0.2045522082630901 0.2632193680651331  F  F  F
0.5199865180402300 0.6900390775941908 0.0872803822404449  F  F  F
0.1534800712419297 0.6141923907578108 0.2514510740339881  F  F  F
0.5541189394077787 0.1807612027425059 0.2325917238168970  F  F  F
0.7190304636675574 0.4153999714757988 0.1926551513745336  F  F  F
0.5096241045605490 0.9504965087301962 0.1224322347830884  F  F  F
0.2535301071521939 0.8627962742444573 0.1094354264156047  F  F  F
0.6281242159416511 0.7506653227122335 0.1747335798262238  F  F  F
0.7431442238134450 0.9075113537722109 0.0790966863403493  F  F  F
0.6906834462571220 0.8546988113062881 0.2790319877685330  F  F  F
0.7208349499501950 0.6812200153976372 0.2004543537446603  F  F  F
0.2239053798560130 0.2852081357465250 0.1820481650956166  F  F  F
0.1124157986219467 0.0616694555431428 0.1029514797527406  F  F  F
0.5656865288209056 0.1885198068412006 0.3228531601888917  F  F  F
0.7746017366642172 0.6706889256366433 0.3480210288006859  F  F  F
0.2123603352406563 0.2888182084602675 0.2588423984814291  F  F  F
0.6134442858935198 0.5372672185767273 0.1303720221923735  F  F  F
0.3330074042840820 0.4669956263895707 0.2117005705266441  F  F  F
0.3167232891264774 0.3356615477101728 0.1408467927927145  F  F  F
0.3026995143378680 0.9719832159220946 0.1223650263478580  F  F  F
0.4970933809722760 0.5860468298198448 0.1253234896041103  F  F  F
0.8686690289947180 0.4626749097138804 0.3028724713398678  F  F  F
0.5901964902946144 0.0688679707482736 0.2938378972086549  F  F  F
0.4637708929537114 0.1383924266413130 0.1853224898656895  F  F  F
0.4823709063282633 0.7918342282817670 0.3034131234482970  F  F  F
0.5165363633200749 0.4176541765062919 0.3055645579850589  F  F  F
0.0998760884429867 0.8427834494249684 0.3046972698429076  F  F  F
0.3106508717931287 0.4132482271202960 0.2780638615830920  F  F  F
0.7800454068323381 0.1342405013084364 0.3411277535522192  F  F  F
0.4888259963563842 0.7005148236944478 0.1619334394489879  F  F  F
0.9908275688338765 0.8966812994095399 0.1710562717388683  F  F  F
0.8791792030459699 0.7334217749124682 0.3281168771673734  F  F  F
0.6082534231432042 0.5755132196885190 0.2729577037650009  F  F  F
0.7953835864612275 0.8251585374229320 0.1274399204050374  F  F  F
0.8892418487697648 0.3359229290547368 0.3100600040569765  F  F  F
0.8206837145378034 0.4607040893123437 0.1627900133228478  F  F  F
0.6405645109500883 0.2655745360925274 0.2270437149480070  F  F  F
0.9043823995833322 0.8142129663214672 0.1579091744862255  F  F  F
0.8713243270616271 0.0884799100677277 0.2977060284989566  F  F  F
0.4454973697138068 0.9123500428984765 0.3158680121153882  F  F  F
0.1062716810592981 0.0594516001933314 0.3073907265815572  F  F  F
0.0340874019990506 0.4244756763198134 0.2258074290514688  F  F  F
0.5680975583333896 0.8478435792411264 0.2629907453587079  F  F  F
0.0031475261787444 0.1327057936524873 0.2139567051183994  F  F  F
0.2177781534243786 0.2874502583527942 0.1046198272068311  F  F  F
0.4389990973480612 0.8689193199373325 0.1640650136429860  F  F  F
0.4120471636694674 0.0074433868840074 0.1519326687197539  F  F  F
0.1246194639101963 0.1268051724919848 0.2148775653914718  F  F  F
0.1024019634458055 0.9420242282091742 0.1770055849144642  F  F  F
0.3038388130665204 0.9020130552291439 0.2598557849981939  F  F  F
0.3615661057926927 0.7782846832101191 0.1390024729756154  F  F  F
0.5897600410148599 0.0482621460007654 0.2164053414472708  F  F  F
0.3171964732252059 0.0865052831203862 0.1512616825029923  F  F  F
0.4106317815563868 0.3514563002378522 0.2500706847997026  F  F  F
0.5166418351789058 0.2082939512237479 0.1314863241002971  F  F  F
0.6960946710805694 0.3280659384019808 0.0618088863406189  F  F  F
0.8389624902576640 0.7090266105310250 0.1511878251256657  F  F  F
0.8353723445992702 0.6728948314319666 0.2264189140715624  F  F  F
0.6211018760288813 0.2576010041529275 0.1061391483809641  F  F  F
0.3787033817555577 0.7668303040974467 0.0653646898439511  F  F  F
0.4206275161508861 0.0362764263218677 0.3056305395184493  F  F  F
0.3170729622382016 0.5459389294989675 0.3151119759940766  F  F  F
0.2456281317093495 0.1266290466813812 0.2147247940605432  F  F  F
0.7380382231206332 0.5498074807889529 0.1448486995196561  F  F  F
0.6310517971675331 0.0645392294343940 0.1433586554780445  F  F  F
0.8121277024041655 0.9630711139597455 0.2187702641564003  F  F  F
0.1673155563636988 0.3647159286838801 0.3466359835783979  F  F  F
0.2428528041002631 0.6942249931088394 0.3149526735584610  F  F  F
0.0417825257654783 0.7202659116246728 0.1513686762365909  F  F  F
0.6646112871448706 0.6498350237650558 0.1349799495464502  F  F  F
0.7069904137606530 0.0251252096982450 0.2005473561985283  F  F  F
0.6456088514354941 0.8668060617690558 0.2063124398975139  F  F  F
0.4112034753979094 0.3537055506281963 0.0889375630265827  F  F  F
0.5198802940366265 0.2634180698577182 0.0604413283728500  F  F  F
0.9060798769187390 0.8785769445350048 0.2251472431168953  F  F  F
0.5295548470383025 0.3362828418802071 0.1226820326504310  F  F  F
0.4043626938132315 0.1586801145544725 0.1180228088693713  F  F  F
0.7645332259636334 0.7684831533716627 0.2473785606762976  F  F  F
0.6345267696148015 0.9813557661276751 0.0857742724839192  F  F  F
0.2166498968538668 0.4716582327919254 0.3232322991270484  F  F  F
0.0541653738565194 0.6791546901480561 0.2227029241293372  F  F  F
0.8883934189970101 0.9676574903037181 0.2795766920824047  F  F  F
0.1874284944611134 0.0315284111333420 0.1809325056998342  F  F  F
0.3371034365445470 0.0906102787709357 0.2616927741657198  F  F  F
0.0416954431285462 0.6165293931232446 0.2890764305871308  F  F  F
0.9182646796708726 0.1119475742767202 0.1602368003384242  F  F  F
0.4492245628961680 0.1415319012471432 0.2621391137352569  F  F  F
0.1819915576394512 0.1392451775479181 0.1458613815913717  F  F  F
0.1330296486446117 0.9892797363378514 0.2447925291843533  F  F  F
0.3206526066197631 0.8840564723543652 0.3359962465834590  F  F  F
0.2968648207445292 0.1379348340877280 0.0802720768140843  F  F  F
0.8648879945376273 0.2718747249652967 0.1087944147069930  F  F  F
0.8829469920831996 0.7613314087699782 0.0879241580567883  F  F  F
0.1151951153436190 0.7182226748427911 0.2863012795821449  F  F  F
0.4739845458881227 0.8384344221040818 0.0925167597839255  F  F  F
0.4329507632476233 0.0135256859953219 0.0732163792876268  F  F  F
0.2192202300105633 0.8407213358190128 0.3045055720477383  F  F  F
0.8082972962915579 0.0622675408343301 0.1688323999474305  F  F  F
0.9426668082588446 0.6707420639353348 0.1876845289757623  F  F  F
0.3246647100606554 0.2886588232554642 0.2914931617319874  F  F  F
0.9147162640883958 0.0537427898680149 0.2286979886867185  F  F  F
0.7985938705297978 0.5637321088997945 0.3096412327739884  F  F  F
0.3574523242956518 0.6603481406675041 0.2934465653793667  F  F  F
0.5053622290304439 0.2997152737957061 0.3353543900958897  F  F  F
0.6597515806188355 0.1208940727580172 0.3476201288544986  F  F  F
0.9194230121276189 0.5788563035912931 0.2931208511162237  F  F  F
0.9687121795604360 0.5485278334055914 0.1016558769191592  F  F  F
0.5111574815873859 0.9875135974459435 0.2656980860597849  F  F  F
0.4005209639939433 0.6668089220857299 0.1115429678259243  F  F  F
0.3834756137714537 0.1458304449617613 0.3281222659962939  F  F  F
0.4779303209322620 0.3673127867845414 0.1872257457537972  F  F  F
0.0228022850792925 0.5041647294024526 0.1644958659934525  F  F  F
0.0795258774215855 0.4926286247211807 0.0952778376899597  F  F  F
0.2050514564383089 0.5798993987403479 0.1837799633819572  F  F  F
0.9808876401850721 0.2548010498748957 0.1338529355208231  F  F  F
0.1919831596790855 0.4885342702528265 0.1304799005061634  F  F  F
0.3652776212437686 0.8936539251059989 0.0756843858664380  F  F  F
0.3053256578484499 0.5358504590160446 0.1484508740442298  F  F  F
0.7402536350048295 0.4038231892686084 0.1163299456713593  F  F  F
0.1541428484936377 0.6973487931083289 0.1178891923583413  F  F  F
0.5664234469555944 0.6330574985465381 0.3353607460307954  F  F  F
0.6177660641973254 0.2983134828748599 0.3017727306902326  F  F  F
0.4537407624027582 0.2487650639859325 0.2180949903315049  F  F  F
0.2623502322664083 0.1803967971888116 0.2828036791139417  F  F  F
0.6840111510331213 0.5886764994686291 0.3330911789139092  F  F  F
0.5338493275580231 0.3281132468331849 0.2499825025424330  F  F  F
0.4022610264587509 0.3687618225242189 0.3254518552393370  F  F  F
0.2990358832938126 0.2119537799450056 0.1413828734123136  F  F  F
0.6002249306165480 0.3936368222785141 0.1765723599504552  F  F  F
0.5374203567353660 0.5110170907055464 0.0692118559193838  F  F  F
0.2378091237135925 0.3935720901151031 0.2178473508107442  F  F  F
0.6405502549347051 0.3877236887508679 0.2487501336007290  F  F  F
0.0374536947505458 0.9639143655229084 0.1128224934617654  F  F  F
0.8503436574953249 0.5868120666141359 0.1718989117534525  F  F  F
0.6891895584452290 0.5714394662430382 0.0740587434480435  F  F  F
0.6304087019427456 0.5008435842628379 0.2138612515227697  F  F  F
0.0712366323789767 0.1751599987430511 0.1169675064808033  F  F  F
0.9075954031920810 0.2639133882532828 0.3746918420633910  F  F  F
0.8353728979713509 0.1175929819851962 0.1022701718485932  F  F  F
0.5000188751989438 0.0797600011118844 0.1218728182708577  F  F  F
0.6295678467419515 0.9564856290624428 0.2620732421275464  F  F  F
0.2272807775059508 0.6005689258395633 0.1071737541189215  F  F  F
0.0668049217923687 0.2291110623759023 0.1875256557020800  F  F  F
0.7626675884479555 0.9435746378928388 0.1514978624149834  F  F  F
0.8215054894506064 0.1943644884888409 0.1630707728164258  F  F  F
0.2237599107454205 0.2593834316735356 0.3342564384260565  F  F  F
0.0253405967430251 0.1109881129333625 0.3538317669127121  F  F  F
0.7251464102247388 0.0625902273598040 0.0937641244541419  F  F  F
0.3057689477234363 0.4147340666737726 0.0803633680282436  F  F  F
0.7678972286032589 0.7903256098189624 0.3243738751329338  F  F  F
0.0720163116586412 0.6042523247789287 0.1286927026506913  F  F  F
0.8607511016908669 0.2129371260191841 0.3120052171678676  F  F  F
0.1273467228300832 0.3456170169075706 0.2170710192080070  F  F  F
0.0418358477503794 0.3273918140476122 0.2718613599444193  F  F  F
0.6584738307930315 0.1666954644510685 0.2734507044930125  F  F  F
0.2303227200361640 0.5092138369737650 0.2460527549630271  F  F  F
0.7374999630103299 0.6541526569677616 0.2747774367075806  F  F  F
0.7424788404785156 0.2514371995781758 0.1167275249577012  F  F  F
0.0081612739707208 0.5001416688353689 0.3094518597516407  F  F  F
0.2166014765786153 0.5868386399856041 0.3543176005262840  F  F  F
0.3217976934440263 0.7827906625838618 0.2864212207997140  F  F  F
0.0990958867745569 0.2625260782885482 0.3279421756569129  F  F  F
0.4077370172576500 0.5545320590446995 0.2636825065088089  F  F  F
0.7379207579464333 0.0208582812406726 0.3539771674265832  F  F  F
0.4144878620862311 0.5430934381303484 0.1848605952310726  F  F  F
0.0487446554759736 0.6935881555869207 0.0757078774308142  F  F  F
0.9958321746320283 0.5404260148753984 0.2358070605085814  F  F  F
0.5167584040276665 0.4613680936229679 0.1398335789757311  F  F  F
0.9882106832498626 0.7847364209723772 0.2089174355304192  F  F  F
0.1711612814905624 0.9537842016609351 0.3126412923913227  F  F  F
0.5589008442912423 0.8450920397227956 0.1499139941658156  F  F  F
0.2207382146828166 0.0596019734737546 0.2799326402651963  F  F  F
0.3420973723016262 0.7294427094062611 0.3566829763036318  F  F  F
0.2905670337261733 0.4958380551750456 0.3840123577203454  F  F  F
0.4896170976545687 0.4074505423354942 0.3772438521780503  F  F  F
0.1525311482999383 0.2753859810256056 0.3981829588186301  F  F  F
0.6068260315568387 0.2648098352740441 0.3773282421864567  F  F  F
0.7280334017779412 0.1043396880740073 0.4116198813991277  F  F  F
0.8996460962898888 0.1333605118757420 0.3676474693653844  F  F  F
0.8195963674610782 0.7623732422877479 0.3934391554346401  F  F  F
0.8808803119219512 0.5396517117848597 0.3646788292754332  F  F  F
0.8694025712900700 0.4046118505033191 0.3717782598370377  F  F  F
0.7747957602766934 0.3881447311339535 0.3175726138681124  F  F  F
0.0082009082865735 0.5372995356121468 0.3819220367251948  F  F  F
0.9972794461270599 0.4125130271220592 0.3663269871115971  F  F  F
0.5455344803992832 0.8658039590828758 0.3537307364252588  F  F  F
0.0957075236081811 0.7585196675936543 0.3593935236273929  F  F  F
0.1560828906469059 0.8789580439919891 0.3710922072249140  F  F  F
0.0343237606232011 0.9821935615118836 0.3512849214901596  F  F  F
0.4308212475951786 0.8237624354481781 0.3712517098389536  F  F  F
0.5213785358866300 0.9930176180864411 0.3452625727768699  F  F  F
0.6585082107728136 0.4450901075740410 0.0621147340529981  F  F  F
0.7759883501229949 0.4207973015219014 0.0417710056401678  F  F  F
0.6876310371864279 0.2037804984673203 0.0522419032957354  F  F  F
0.1276883136280800 0.2873570188155908 0.0505025587052718  F  F  F
0.1788961244810401 0.4944522577086371 0.0511795060501094  F  F  F
0.4334254898098966 0.8502849511076562 0.0184305435082729  F  F  F
0.2042220148824486 0.6787622406971024 0.0465539720134186  F  F  F
0.2627532365365552 0.9484441095246328 0.0501722536579168  F  F  F
0.9017026448703748 0.5805282882359806 0.0390040273057726  F  F  F
0.9057490235990673 0.4600966641670619 0.0597909506166533  F  F  F
0.8243462681895072 0.0105925358511516 0.0597073760653481  F  F  F
0.7825528315014629 0.1228138009486305 0.0342377964239065  F  F  F
0.1691233586183479 0.1620452404561678 0.0696765557039512  F  F  F
0.0251884785525784 0.0299588868082219 0.0471761281186177  F  F  F
0.1294941044492638 0.9663388925507850 0.0572692131567682  F  F  F
0.9544874050779811 0.2795478947185173 0.0574012999461198  F  F  F
0.9459002618610374 0.3682585283699418 0.1149039183371783  F  F  F
0.6128411384857082 0.1022148764299944 0.0685130882585605  F  F  F
0.5549760029714828 0.6333698031400983 0.4174467145967019  T  T  T
0.6859645951145418 0.4904173088585587 0.4373582336268030  T  T  T
0.5040832232557318 0.4688354731528322 0.4858270349289808  T  T  T
0.3540696832479432 0.3861034067035596 0.1135586947021827  F  F  F
0.2159843681399053 0.6721537155406799 0.0935515007969168  F  F  F
0.3161571930415849 0.7176412157115664 0.3115288135223832  F  F  F
0.3552006478562050 0.7276250420660316 0.1042885184543510  F  F  F
0.2933085013587621 0.8532869696099533 0.2962602740978986  F  F  F
0.4445397323576033 0.5746342802748589 0.2239330083193063  F  F  F
0.3979339114825439 0.1040085837935805 0.2891366479510669  F  F  F
0.6294574316440577 0.1895574222336726 0.2313882539362582  F  F  F
0.9160714048906158 0.0383346162112880 0.2754224295837731  F  F  F
0.0768245726951867 0.7710481501608409 0.3129815414753835  F  F  F
0.8094755897630038 0.7390237449378068 0.3485254462942701  F  F  F
0.8129494338190848 0.5331854152364991 0.1467405841086755  F  F  F
0.4119639191726273 0.8360722137335015 0.0632901652225675  F  F  F
0.5316039153096359 0.3914550338728148 0.1562664414939097  F  F  F
0.4768413256818914 0.3708736928371913 0.3347978907599599  F  F  F
0.6537175267296363 0.6788627033127507 0.1788263270802999  F  F  F
0.4649323928225202 0.7158466122104135 0.2066344076861042  F  F  F
0.7718641238818619 0.4001216660733692 0.1593576212139206  F  F  F
0.8540706295031163 0.7774070486221629 0.1315206219169231  F  F  F
0.8545586645409745 0.9209858859582376 0.2484703679867260  F  F  F
0.8678349844757268 0.5361112561664565 0.3173257770190434  F  F  F
0.6184019013947168 0.1359875814593909 0.3092956019056441  F  F  F
0.7738385451834601 0.9985542912647574 0.1843611096720488  F  F  F
0.5924289616676138 0.5644869756972358 0.2271327070422507  F  F  F
0.6121879529580228 0.5757786077291991 0.3199778842905696  F  F  F
0.9604325338290246 0.0791335617460376 0.1944066608351508  F  F  F
0.3292979261147450 0.1483439756125058 0.1238623570745889  F  F  F
0.2905387510139681 0.9154816242471494 0.2137963890405860  F  F  F
0.7452813630540630 0.8823362361099429 0.1247394142912478  F  F  F
0.7643627359083528 0.6942128286559491 0.2381395402568216  F  F  F
0.9477062338464304 0.8441807582342034 0.1918366169718002  F  F  F
0.7267764141260062 0.0945808442140060 0.3641110641145703  F  F  F
0.1610239918379311 0.8802936782759552 0.3232564510397233  F  F  F
0.0746977331174406 0.0063722338774576 0.0805348277300273  F  F  F
0.4681310661915586 0.3224261284633145 0.2251455936234053  F  F  F
0.0472699790992310 0.2598465529003336 0.2933954065606708  F  F  F
0.4794439625119393 0.1769304905663102 0.2248244321724731  F  F  F
0.2009076508036824 0.3276919537206642 0.2184688313335440  F  F  F
0.0910868393816848 0.6565260631699287 0.2618771064353387  F  F  F
0.1339280261180926 0.1340241727029854 0.1084411394943800  F  F  F
0.0418839033561613 0.4956639351372603 0.2099538776017602  F  F  F
0.3837789050948046 0.8192375556715035 0.1760985418130110  F  F  F
0.4736608587303629 0.9822802241155317 0.3076914441320563  F  F  F
0.6337904185067095 0.8815449099726116 0.2527868491256076  F  F  F
0.2645986280376947 0.2799224030895270 0.1418034153768571  F  F  F
0.6496538766949825 0.0549168260081054 0.0973489476890456  F  F  F
0.5812221688363597 0.0152129030451853 0.2590669069484834  F  F  F
0.1512012866406219 0.4659890477371028 0.0920879768219317  F  F  F
0.5407765751952912 0.5245244860620468 0.1160485888247422  F  F  F
0.4636194513213947 0.0128193498161843 0.1170473161449459  F  F  F
0.8081025349217250 0.2619145917741552 0.1397436572761084  F  F  F
0.6883636830877431 0.2611208310886668 0.0839147270859180  F  F  F
0.5733233040560287 0.2626630186457816 0.3343850362183553  F  F  F
0.4765667639811645 0.8475219197723012 0.3366845630255620  F  F  F
0.0655061813609304 0.1737328973476095 0.2199913694087343  F  F  F
0.1585167927271856 0.0161518806280245 0.2864866923800944  F  F  F
0.8445213305070133 0.1229025299737904 0.1497164136618964  F  F  F
0.9916783284757541 0.5598273346137383 0.2817662998233209  F  F  F
0.2947086525313447 0.9180208861109832 0.0890578785168120  F  F  F
0.8529461105685231 0.1415840633411344 0.3292480449115108  F  F  F
0.2596565733592012 0.5261586474241423 0.3443304332965962  F  F  F
0.0328837711071444 0.9570912415014630 0.1603599517723084  F  F  F
0.1601191809639483 0.9691138203778431 0.2022626371111161  F  F  F
0.2649078113546826 0.1134778576384522 0.2601862337496152  F  F  F
0.0363260867682081 0.5373567646494066 0.1225955777537725  F  F  F
0.7918972104669435 0.0763884010769797 0.0727714644155710  F  F  F
0.3599759437284979 0.3561781348350966 0.2857716977294585  F  F  F
0.0795302465522856 0.6788978404992447 0.1190587615973474  F  F  F
0.1851080202829066 0.1064842268666888 0.1889163348361016  F  F  F
0.2764579934180826 0.4478060964906476 0.2402173121009018  F  F  F
0.1488091963970886 0.3154345761510707 0.0930614990902420  F  F  F
0.5418394410266310 0.7785421180885940 0.2743530169757166  F  F  F
0.2555998782443326 0.2541471544752141 0.2913411807578086  F  F  F
0.7189093908949646 0.3995131003324918 0.0704283473924863  F  F  F
0.8672645088009192 0.6593683366643941 0.1837434228201411  F  F  F
0.4956129706903417 0.8759821315124537 0.1325401492367229  F  F  F
0.3777053849406649 0.5873648422326748 0.3030556775563880  F  F  F
0.6481971548087631 0.4271692453897282 0.2073772767313308  F  F  F
0.8496570064022471 0.3970817222636722 0.3246480530642827  F  F  F
0.7586163764404669 0.8216426728004141 0.2814001024468492  F  F  F
0.6275734253394306 0.8266326483295450 0.1673639088170622  F  F  F
0.6099637510291794 0.3189784909949133 0.2559345488890436  F  F  F
0.4725117250129231 0.1467261512982926 0.1381586102115782  F  F  F
0.5461159052667868 0.2655391700668732 0.1051465627950439  F  F  F
0.4763979426273026 0.6596608229062618 0.1217450456104653  F  F  F
0.0292688538051434 0.4781050892280667 0.3531185561311282  F  F  F
0.9099593477207175 0.2668854358404911 0.3262752499527260  F  F  F
0.0375764665672564 0.0487764153229986 0.3274562788294954  F  F  F
0.3364521498937366 0.0126383187650304 0.1565626190187422  F  F  F
0.3586393752794010 0.4964782398429041 0.1713734524354932  F  F  F
0.1592466450550908 0.2897545385051071 0.3515429965595964  F  F  F
0.1532789111141249 0.4308359353337794 0.3254080084594305  F  F  F
0.6767485436841824 0.5773478528748716 0.1216185933938704  F  F  F
0.2317718346181427 0.5508406539023014 0.1427231813592385  F  F  F
0.1770073403464686 0.5538988380285645 0.2251761033741353  F  F  F
0.0054735899652308 0.7141699800027137 0.1934580833389310  F  F  F
0.7485934026906617 0.6196909490987814 0.3166867875321021  F  F  F
0.9373817531586243 0.2946683778052159 0.1033397973681937  F  F  F
0.6487379846554642 0.0706198175672829 0.1889494572496939  F  F  F
0.0827277160122313 0.3797251265004362 0.2494135706171467  F  F  F
0.9061608946895898 0.5333423188455475 0.0765171174960099  F  F  F
0.0540811232225350 0.2393739480916868 0.1411411470779977  F  F  F
0.7295803166032322 0.5847495282385398 0.0640709268309475  F  F  F
0.5674419120414248 0.4798227162803707 0.0598987118197644  F  F  F
0.3244092667210482 0.4145161308112620 0.0544430363938188  F  F  F
0.4532494348155240 0.3539413385161518 0.1003598377595648  F  F  F
0.4668131760725035 0.6080370987708970 0.3369316456630370  F  F  F
0.5659641124906482 0.6422852775214275 0.3637584403754224  F  F  F
0.5646390760766737 0.4781413740753060 0.3193556162299400  F  F  F
0.2086537773033279 0.7148559229869813 0.3010437805886698  F  F  F
0.3104443840788025 0.7356227606444343 0.3766631700747979  F  F  F
0.2234641662565418 0.6253069146575247 0.3388434957179495  F  F  F
0.2689497165412048 0.4608192669566900 0.3958194742362729  F  F  F
0.5258984092352872 0.3983053101974066 0.2801346716219884  F  F  F
0.4611768398296597 0.3994963760301201 0.3988831721733302  F  F  F
0.1367493349017032 0.2345840269991665 0.4055784674266418  F  F  F
0.5865091222278942 0.7022571076066625 0.3101370733976151  F  F  F
0.6118792306836353 0.3048066010734692 0.3903357745416151  F  F  F
0.3769416151678265 0.1903219773632358 0.3243747337933254  F  F  F
0.7045976272452275 0.1392422071034782 0.4222309861050761  F  F  F
0.9014280095477136 0.1711776413882822 0.3838755844735774  F  F  F
0.8933587598687366 0.6925730594990120 0.3193296279375535  F  F  F
0.7831612777767303 0.7735400992887176 0.4087490821839548  F  F  F
0.9241553991531585 0.5460845346407546 0.3738305937780300  F  F  F
0.7561642757735791 0.3471414604272935 0.3207126033272549  F  F  F
0.8590781119953779 0.4458381104979257 0.3825997826889835  F  F  F
0.0231579651429193 0.5368183149008459 0.4087429947361310  F  F  F
0.9513517185895328 0.4110769441409702 0.3699481147716909  F  F  F
0.9676788863427048 0.7718272386617214 0.3169208770236713  F  F  F
0.0947089116816559 0.7156507797047897 0.3686665983447137  F  F  F
0.1386874541211317 0.8397495067654018 0.3809272805941388  F  F  F
0.9813144021353714 0.1184437008803207 0.3611326928004217  F  F  F
0.0668757228940046 0.9723415413503914 0.3701071758870663  F  F  F
0.5509340981812351 0.9108731578853381 0.3577269930469955  F  F  F
0.3997939324121347 0.7908516360124701 0.3659341033348150  F  F  F
0.3627232155949124 0.9018533302125824 0.3350009574083033  F  F  F
0.7226031324797862 0.9895500060380658 0.3720652890674399  F  F  F
0.5505162023544324 0.0276443535556411 0.3420522519993132  F  F  F
0.9216262634239712 0.3000276685768912 0.3894691927948163  F  F  F
0.8184228994854738 0.4268781493367947 0.0515281866514402  F  F  F
0.6701571572550288 0.4896757892393451 0.0606904545438237  F  F  F
0.7263778809566610 0.1832548809663614 0.0431088181585749  F  F  F
0.3132800893304069 0.1033789823816058 0.0648605149374714  F  F  F
0.1396195615198597 0.2431435941343427 0.0478733617438277  F  F  F
0.2229477209612715 0.4860823861825070 0.0467855954152878  F  F  F
0.2511317362185187 0.8212477109229220 0.0982082952449356  F  F  F
0.4771763099304036 0.2769115893874217 0.0556087147416751  F  F  F
0.4511506089555661 0.8166678356829556 0.0030354254456919  F  F  F
0.1625500177582227 0.6700649609230259 0.0367475267763492  F  F  F
0.4126679931764534 0.9749955042205131 0.0646019034085445  F  F  F
0.0137369052876066 0.7225470421501338 0.0760626161358381  F  F  F
0.8748313084423006 0.7924464758117039 0.0678981101002383  F  F  F
0.7036219706538621 0.9306639451036149 0.0746785809865812  F  F  F
0.5226436224893988 0.7354388461534018 0.0871295150606245  F  F  F
0.2182407358889160 0.9594023479396195 0.0527385260195443  F  F  F
0.9263336557074878 0.6185519304016985 0.0401838676946570  F  F  F
0.9307065487635612 0.4520881697965138 0.0365278321495219  F  F  F
0.5949342883406207 0.9644449838602415 0.0954630692829540  F  F  F
0.8001212795775260 0.9724193112180972 0.0656737301922141  F  F  F
0.7819212944483328 0.1027474677945363 0.0087904803711132  F  F  F
0.2150525669750134 0.1563671030421873 0.0696646744596675  F  F  F
0.9824647032601849 0.0385095180073164 0.0551246207101668  F  F  F
0.9981381736945201 0.2830283764007247 0.0497369596327025  F  F  F
0.9310374157650557 0.3993303165918068 0.0960062421227407  F  F  F
0.1141502163890856 0.9371881680547559 0.0377253235905021  F  F  F
0.6349183890894655 0.1410888684486025 0.0610033648927544  F  F  F
0.5534345365709431 0.4918830077285041 0.4011508568596471  T  T  T
0.5219720451669940 0.4770927927646318 0.4536183107416732  T  T  T
0.5550919990782330 0.5777884262705989 0.4133858985984719  T  T  T
0.6352171842287897 0.4906328572856644 0.4237088720053017  T  T  T
