 C  O                                   
   1.00000000000000     
    21.3948993682999991    0.0000000000000000    0.0000000000000000
     0.0000000000000000   21.3948993682999991    0.0000000000000000
     0.0000000000000000    0.0000000000000000   34.1699981689000012
   O    C 
     1     1
Direct
  0.5439393841882115  0.5285363949487984  0.4106908773297166
  0.4914518568117875  0.5185205780511981  0.4109612666702885
 
  0.00000000E+00  0.00000000E+00  0.00000000E+00
  0.00000000E+00  0.00000000E+00  0.00000000E+00
