 C  O 
1.0
       21.3948993683         0.0000000000         0.0000000000
        0.0000000000        21.3948993683         0.0000000000
        0.0000000000         0.0000000000        34.1699981689
    O    C
    1    1
Direct
     0.543564796         0.529667735         0.410473496
     0.491826445         0.517389238         0.411178648
