 Mo  C  O                       
1.0
       21.3948993683         0.0000000000         0.0000000000
        0.0000000000        21.3948993683         0.0000000000
        0.0000000000         0.0000000000        34.1699981689
    O   Mo    C
    3    1    3
Cartesian
    11.873655383        13.550883207        14.264153068
    14.676143252        10.492428817        14.944529930
    10.784809684        10.030687129        16.600707665
    11.840676520        10.523787493        13.707323893
    11.167539701        10.207352499        15.500137090
    11.876136991        12.361724943        14.125395373
    13.590407853        10.497040706        14.478131856
