 O Si  H Mo  S                          
   1.00000000000000     
    21.3948993682999991    0.0000000000000000    0.0000000000000000
     0.0000000000000000   21.3948993682999991    0.0000000000000000
     0.0000000000000000    0.0000000000000000   34.1699981689000012
   O    Si   H    Mo   S 
   236   102    68     1     4
Direct
  0.2825718559085433  0.7101719975963762  0.1017264560666847
  0.6117132407504765  0.6247670768330146  0.2034471080036177
  0.1509877447905134  0.3905206485220956  0.0916646449652920
  0.3797879093229112  0.4415013736218492  0.1408259128487917
  0.6765198966344854  0.8484130257844518  0.1355450667901598
  0.1025189986733583  0.4671404244563844  0.3538344226903011
  0.0038175667645342  0.7610829465364887  0.2985269589947921
  0.6586328164444890  0.1440380314359236  0.1968143761021044
  0.2143848467220539  0.9163856163504582  0.2057710263923723
  0.8452555734250399  0.5325800509756075  0.1029719469549712
  0.4124966045525182  0.7687446988621486  0.2093252208019769
  0.5187001284172821  0.5512399731476229  0.2264835397798737
  0.1144860474753671  0.5134252899339634  0.2156637327532185
  0.6062745340694836  0.5022675090021163  0.3412058946563984
  0.4372854518923827  0.6478302345919470  0.2220758921075354
  0.1243689724793597  0.4187971563453809  0.2814222176709750
  0.5209344529594054  0.7362585902483210  0.2372315607906376
  0.3182345929863705  0.9826567694590549  0.1995476949724989
  0.3233164387447521  0.8567059524084065  0.1927210079526362
  0.8139552764187354  0.8753646605735478  0.2736334157328141
  0.9758098628793426  0.2483626687456851  0.3099329403430438
  0.9872700392538797  0.0426867889112227  0.2919540488865221
  0.0027143053545554  0.0208920310054080  0.1758827739056172
  0.0987198126634146  0.2965619575380860  0.1271358892984603
  0.5928698853274220  0.7333593692551574  0.3001509321536232
  0.4230764241797207  0.5870233064438206  0.3391625444983165
  0.8009001224184021  0.3269647476131852  0.1657008221518051
  0.0644124359797397  0.2042942469137831  0.2633173118434079
  0.5215216165281193  0.6912798564160654  0.0885345599162269
  0.1535039292267923  0.6138622851784966  0.2518816794639808
  0.5524203605475201  0.1780123187226957  0.2317828192613201
  0.7186607703439303  0.4126266456256111  0.1935914068672538
  0.5114076823473723  0.9500982343930342  0.1251267872865016
  0.2539073065770080  0.8640516225195269  0.1085668588697584
  0.6273840476407201  0.7477172526929265  0.1748556980126977
  0.7414045259573064  0.9049896207742165  0.0791153878162678
  0.6938332178767646  0.8507230044108773  0.2800855039167851
  0.7210857196410856  0.6811681329320547  0.2014703382076181
  0.2233355917357652  0.2848560149834319  0.1814276953910356
  0.1125201702137638  0.0615534402173828  0.1026907584053538
  0.5631534596504882  0.1810873852502788  0.3213852413303022
  0.7813764915632816  0.6708967049441090  0.3486553092825361
  0.2068837762951708  0.2854341665096534  0.2578882218754052
  0.6156980137480695  0.5353810028167250  0.1308528838734322
  0.3321332803864990  0.4648407511713078  0.2112339628869072
  0.3167816563032901  0.3353191776531227  0.1401603473011789
  0.3030789279187429  0.9724626774002354  0.1225584370152546
  0.4998929728968036  0.5863904270670757  0.1266944745553926
  0.8703817629786118  0.4646391925077669  0.3025847068576545
  0.5924262483074890  0.0635158280162419  0.2935335288459560
  0.4601464441778325  0.1399412912951102  0.1851707367748223
  0.4797155160270815  0.7924553079158081  0.3034768262987736
  0.5129416420224746  0.4114399726382002  0.3195575256510611
  0.0994664731527794  0.8432054018378826  0.3041724548280115
  0.3092701665608951  0.4145991348362044  0.2788276855806767
  0.7809038939230644  0.1309532683712664  0.3411597249644148
  0.4916457868242297  0.7004705926329023  0.1633893036856183
  0.9886318748355927  0.8958305144016907  0.1683104284530098
  0.8871939811187487  0.7287867348515652  0.3280196520646417
  0.6124414700063123  0.5733664904909197  0.2743659758815165
  0.7933567130774883  0.8226144301052124  0.1274023814297782
  0.8862692521243843  0.3377405035777448  0.3108850933121712
  0.8208461583288786  0.4586983920531522  0.1640132517468910
  0.6375944938151571  0.2639364156901376  0.2275905316074620
  0.8975933753823671  0.8147030015451375  0.1637438618511892
  0.8740744009519456  0.0936932546167437  0.2963153217543921
  0.4440315944616415  0.9123719359486301  0.3165386556993666
  0.1068621341747460  0.0597896548003476  0.3078751955475132
  0.0332993654772281  0.4254727330824441  0.2259488626265076
  0.5715980244320644  0.8414705102481964  0.2652852762091072
  0.0037890905500366  0.1315427537000300  0.2129571114213549
  0.2178335181302292  0.2865906853628895  0.1042855963877005
  0.4377689132817142  0.8691018687382382  0.1655811933911417
  0.4125327124882489  0.0066140017682174  0.1528134510307244
  0.1251504856114882  0.1277567248544167  0.2155091083213209
  0.1005049843400586  0.9397868376356237  0.1779332908327062
  0.3020514187859495  0.9039737966528417  0.2608707938200991
  0.3613525384598054  0.7769547863899235  0.1411640795789546
  0.5905026976707251  0.0436490281910039  0.2162996901534702
  0.3185033473917975  0.0864017700625034  0.1517948309105884
  0.4087682833300343  0.3529489093961392  0.2507844065911027
  0.5163464298324197  0.2082171076314085  0.1316050920475562
  0.6960505294955475  0.3279804591734698  0.0622834195472255
  0.8396106707145957  0.7070456566698370  0.1512059528585665
  0.8363313613952633  0.6697422150132381  0.2263623228615632
  0.6210814467268897  0.2578629356701860  0.1068199429491986
  0.3797405257374685  0.7678036360662126  0.0673023756456505
  0.4217748033250291  0.0361469698310358  0.3046330369243796
  0.3127773227209224  0.5485784169649157  0.3137492274034071
  0.2458468632749828  0.1243434929182768  0.2142973209633394
  0.7407112120708759  0.5485110556308636  0.1445223992853402
  0.6313086319264006  0.0598430857416265  0.1433487436820986
  0.8146383354478424  0.9625318059730883  0.2178651062390843
  0.1673867153987519  0.3645917033199635  0.3465505195347244
  0.2416269314356839  0.6960177734935979  0.3155500788227397
  0.0436798071276066  0.7204470751832102  0.1517739877263598
  0.6666656988830779  0.6477129142565650  0.1358902695362255
  0.7082857839426832  0.0245660595811758  0.2009549989611504
  0.6477784863338540  0.8620775907898754  0.2077236507057520
  0.4120975704826547  0.3537700821587111  0.0886363624963929
  0.5206727418950842  0.2644309358420296  0.0609495921926984
  0.9123857410963915  0.8823776756168219  0.2279374089503287
  0.5292249893376278  0.3362342187726993  0.1239397565500935
  0.4044123255296242  0.1582154088254770  0.1168759365199820
  0.7705444131633836  0.7689802884867731  0.2461694794808122
  0.6338351600318415  0.9805076163361186  0.0838799382888886
  0.2145529433493975  0.4730597268791183  0.3237145485531386
  0.0548840954353346  0.6797100432344605  0.2233137096463568
  0.8870235724525650  0.9711658490877360  0.2809390144921692
  0.1843341503072402  0.0306899649551340  0.1810018240143361
  0.3361635649293762  0.0893444031413631  0.2626738060419789
  0.0421957926194879  0.6170345583318915  0.2896863957863504
  0.9185092422787842  0.1106114801508953  0.1592579279638564
  0.4468240393552118  0.1427549327528765  0.2617904310091665
  0.1816887962201880  0.1386839401531241  0.1459589176548749
  0.1315788591419296  0.9879943492801200  0.2453841727705758
  0.3203919745175212  0.8841753656527408  0.3366242346229854
  0.2954372161185526  0.1361139971055224  0.0808110277634453
  0.8650259484078129  0.2714524264632791  0.1087723064480357
  0.8879074571550777  0.7644460942425999  0.0911692103168500
  0.1161600847461498  0.7184671608215883  0.2870455187394928
  0.4753565527850616  0.8385891037617212  0.0946570995232755
  0.4360108094437569  0.0125233961555357  0.0744907248167966
  0.2187370961452902  0.8408266614688077  0.3050979878940068
  0.8085709361770750  0.0605682593142610  0.1676764377052993
  0.9439435881410658  0.6713856175323984  0.1880008773206208
  0.3199328934835051  0.2889544679821819  0.2888848690080690
  0.9158517874388492  0.0528003943594361  0.2280999431834418
  0.7981393676585266  0.5643927613703915  0.3094893404581999
  0.3548312542840854  0.6615820985721885  0.2916773473831298
  0.4946938377645455  0.2865785220651242  0.3296258440080702
  0.6604874640104643  0.1188048913094901  0.3465089970143878
  0.9198197547183570  0.5810492515274437  0.2937995866500485
  0.9708601644161701  0.5487110409005870  0.1003427029122122
  0.5120040780027577  0.9834086715394634  0.2656602380873381
  0.4029393720251613  0.6671037306397414  0.1128748803240629
  0.3834883900221494  0.1451897831037650  0.3284588806694210
  0.4757472950393809  0.3689468558322677  0.1879587139971512
  0.0212628741460593  0.5057054800007607  0.1647866091690105
  0.0813870564159202  0.4923930250820694  0.0966755985596144
  0.2043192417887348  0.5807157229718806  0.1837172878220166
  0.9810477925768712  0.2557900457191102  0.1339013398049875
  0.1946246474258342  0.4879911894195628  0.1310886319480270
  0.3674296693947300  0.8944878506446962  0.0769211463441904
  0.3065995973837102  0.5379863942493659  0.1499798112159781
  0.7401672902393059  0.4028955827507332  0.1170705998091332
  0.1556463846621787  0.6970690918774644  0.1173411226832192
  0.5609335671615863  0.6209086323707561  0.3358243993864104
  0.6126855553166506  0.2923988421073347  0.3024834515605041
  0.4533246556426770  0.2502383523804618  0.2185372049925295
  0.2598101714775851  0.1789410556346412  0.2823537811124714
  0.6849817563599312  0.5959713116816152  0.3350276465065667
  0.5323536699707020  0.3296839810684252  0.2507215857503430
  0.3959465758552903  0.3646639140586168  0.3269422969925422
  0.2995579892389305  0.2116946993254034  0.1410593634729126
  0.5993275888294703  0.3912927432640553  0.1789383183421023
  0.5380086487934614  0.5110966593316542  0.0701677602700388
  0.2375413127389444  0.3915169284951652  0.2187663168355075
  0.6415913587471874  0.3844908864183866  0.2508568914645042
  0.0396482819300496  0.9623505130515353  0.1118940508607635
  0.8535745569993306  0.5847693177999344  0.1716583782765075
  0.6902373808842039  0.5709892362471388  0.0742273986271556
  0.6311737574988510  0.4981293700880055  0.2156298110828098
  0.0711705048720640  0.1752472862029334  0.1170304557959733
  0.9102887093726716  0.2675661441885529  0.3755787415687533
  0.8357451912151403  0.1153852991066298  0.1013782614187431
  0.5007317687635444  0.0797334679553360  0.1234543855871441
  0.6305131366205147  0.9515300794228337  0.2627245283095871
  0.2285722773315281  0.6000006557672745  0.1070976375882706
  0.0667530532905111  0.2291113021820044  0.1875743184106728
  0.7617769619713251  0.9418060375135774  0.1514006961715226
  0.8217027589149783  0.1925870700197901  0.1622165355016139
  0.2209543890168433  0.2582603938972971  0.3333374976647074
  0.0253000431245751  0.1115897338755036  0.3540197341589848
  0.7249982117314434  0.0618089405865589  0.0935765192612558
  0.3059775637815950  0.4128641220082697  0.0787440778074260
  0.7754677964699389  0.7887591947422404  0.3233322264632245
  0.0728083165205807  0.6046266436872513  0.1289439825910476
  0.8579630163602848  0.2157834043027181  0.3149648393270344
  0.1262150308044935  0.3469353253624118  0.2159063540294874
  0.0410513548034908  0.3277286265286996  0.2708855267444892
  0.6576174815967948  0.1631642002673202  0.2722688368238280
  0.2296665310041709  0.5085642817462441  0.2453353282247552
  0.7391592044621945  0.6578734875058551  0.2760240039760946
  0.7424308403837385  0.2504412507791967  0.1167170473617752
  0.0075405598095321  0.5007785277540026  0.3098612746397443
  0.2151336622169716  0.5886886520734856  0.3556602239078092
  0.3212488113792704  0.7839881525840645  0.2862541913476169
  0.0962242294147512  0.2641345801693902  0.3279099374981011
  0.4070445475335084  0.5542499532280942  0.2643004428132570
  0.7379882466913718  0.0184489702397439  0.3551515450824354
  0.4167950790522134  0.5390042115391362  0.1857950482204384
  0.0500160664365679  0.6948663828723758  0.0759821912845458
  0.9956461268306643  0.5415192630123039  0.2363781637680697
  0.5181365648155748  0.4612323733595350  0.1408861823197115
  0.9907104661514810  0.7860784662113534  0.2083705864777919
  0.1704579908594607  0.9535903545272448  0.3135663312723291
  0.5577280558643219  0.8432532754023985  0.1532219997898975
  0.2204038391331913  0.0576326656217256  0.2793774915844677
  0.3416914490152546  0.7293227240698233  0.3563112121405250
  0.2872816941628884  0.4991621200415526  0.3846462000321991
  0.4771060800982863  0.3636196977784666  0.3879964784593010
  0.1505098606984082  0.2750638813811206  0.3978396814526780
  0.5919817696794470  0.2629512671718127  0.3775468775163251
  0.7261790999602273  0.1041844786875830  0.4114343126634258
  0.9001003331814840  0.1337515108800016  0.3678645265997535
  0.8293436588912438  0.7643851418611053  0.3920716280191570
  0.8800663648105624  0.5412099641181919  0.3648054687408129
  0.8667104599343407  0.4086441164002593  0.3719474184674226
  0.7732651481468905  0.3952790393181574  0.3165570857629298
  0.0072050353540691  0.5366503139934257  0.3824839918008188
  0.9943890098324386  0.4124702122448610  0.3663311795354144
  0.5444900882992536  0.8658748591426767  0.3539307652488466
  0.0900033283205715  0.7604495285555545  0.3592925581699439
  0.1541392523088691  0.8773781349087261  0.3713571380310630
  0.0337118723365893  0.9829069720815934  0.3512156675912101
  0.4310862318655727  0.8227479876694300  0.3722518990353258
  0.5213966233907857  0.9925286920559614  0.3451138625644852
  0.6586933539399539  0.4449039654384849  0.0623863907156487
  0.7758390025226982  0.4208421003758323  0.0423460892207749
  0.6870801154671655  0.2039105354642761  0.0523169109669931
  0.1272499133273671  0.2873361165977875  0.0507033278739104
  0.1797198447546650  0.4944608727463276  0.0518514655332171
  0.4364562864533808  0.8503762605720599  0.0204319563504510
  0.2065855350811115  0.6785587901135335  0.0463156701595164
  0.2665200993279221  0.9499823424244507  0.0495076288781491
  0.9002243269697314  0.5823407719003461  0.0397216762626362
  0.9083877239114242  0.4608758640728075  0.0576737142160292
  0.8219872980815973  0.0090946275986914  0.0576494431287906
  0.7819663600867877  0.1226934356588134  0.0339279937179263
  0.1688852384133794  0.1621807061802581  0.0697136074958977
  0.0263186223727847  0.0293101320735362  0.0466549487022951
  0.1313910295128823  0.9666839273523070  0.0563200602048204
  0.9545177505465688  0.2794600460738813  0.0573325139718433
  0.9453204429109922  0.3688683012616977  0.1140285742387489
  0.6126962593933480  0.1025602717825462  0.0694801359151809
  0.3539558016410988  0.3856435485323163  0.1126244385294823
  0.2177391574576573  0.6716583251293280  0.0933953460512154
  0.3149956728312049  0.7187173686125395  0.3110730497863737
  0.3566679655725890  0.7273188773985959  0.1057686873653491
  0.2925489823781889  0.8541797326178737  0.2967533960001999
  0.4452955458082559  0.5726210763759032  0.2246297253413970
  0.3975557293733797  0.1039989768813964  0.2892127896932613
  0.6275831132494558  0.1877573187837739  0.2308366995305947
  0.9169038457031459  0.0406801102156045  0.2752073399239376
  0.0753477123890393  0.7718527528869877  0.3121318160034702
  0.8173723363967630  0.7384191883189203  0.3478840648634015
  0.8152311873244468  0.5308146461806766  0.1471003717873231
  0.4138852540148143  0.8364763339988764  0.0650936404909537
  0.5312893626271484  0.3911746800973871  0.1577936810510658
  0.4689573542374973  0.3570970639585561  0.3408338878659560
  0.6543080702953495  0.6764456071827600  0.1795915431135441
  0.4658202968560680  0.7140133098032838  0.2078404672478279
  0.7715584257868867  0.3984816624708585  0.1602047594762946
  0.8534606053007988  0.7772287952298246  0.1336770577171375
  0.8571036103241604  0.9231411144492903  0.2490291258146995
  0.8677788420331000  0.5377149981421558  0.3172687567102055
  0.6184540071650347  0.1318590140845298  0.3082074718286312
  0.7743877162642850  0.9972207974003523  0.1839416192218204
  0.5940637921954391  0.5621415359935844  0.2289825183761152
  0.6162299580144002  0.5708481906858445  0.3215649190321727
  0.9608795707417539  0.0781809707061168  0.1934181610794522
  0.3295215017825262  0.1477540277647930  0.1238023305505582
  0.2896709100153274  0.9154139675916133  0.2144590061756590
  0.7437104707453188  0.8803237771222524  0.1248598675282123
  0.7664808094694395  0.6943232104434414  0.2381406663003786
  0.9482169249328751  0.8452982186155121  0.1930688310441233
  0.7267090912991880  0.0926497002818973  0.3640245785939116
  0.1601392398936751  0.8799967341507020  0.3236014049284286
  0.0761792415647060  0.0058285379350292  0.0798503204927673
  0.4668750011507082  0.3241202605768909  0.2262712441359600
  0.0453013565204093  0.2605952434386845  0.2928738950327070
  0.4775398324525132  0.1779413508698914  0.2246427669711122
  0.1992089593640546  0.3265032732126429  0.2179900364082646
  0.0916963839204703  0.6568830538083825  0.2624312226876615
  0.1337671658500622  0.1339475422756982  0.1084402199550340
  0.0410253869844204  0.4966255479100190  0.2101263851812303
  0.3837728275045889  0.8183557272140758  0.1780281287114259
  0.4737541198536295  0.9814724252125100  0.3074889462815272
  0.6359844858228851  0.8765254811952399  0.2541485116235643
  0.2647640022797600  0.2794993806889522  0.1414525328338195
  0.6495165919724050  0.0534610040867044  0.0971047409988681
  0.5824136009315759  0.0103560311023626  0.2588594444215607
  0.1529029196004563  0.4657803325838306  0.0929400681041860
  0.5425009116764407  0.5240688681615285  0.1170702439909340
  0.4652977458333734  0.0122874774026398  0.1186824439377919
  0.8081659619505593  0.2607676212137492  0.1396158451669423
  0.6880181771080739  0.2609702264104533  0.0842364861737449
  0.5650802414681285  0.2556741188833028  0.3330012061520298
  0.4753385625097439  0.8475542353017999  0.3370842748411721
  0.0651672049532723  0.1736684310912212  0.2199979085414433
  0.1579498369257819  0.0152983592998084  0.2867883527529899
  0.8447355466670736  0.1212937204762679  0.1487825702837858
  0.9918062898566791  0.5607596001830008  0.2823108834451593
  0.2963637122294491  0.9189839130033530  0.0889421112993992
  0.8531618399492226  0.1429004798414412  0.3296617722744056
  0.2570595678311391  0.5282042682717013  0.3440813933972241
  0.0325180457380334  0.9558100743403439  0.1593010458284042
  0.1583663509483911  0.9680345204843260  0.2027026135277847
  0.2641801343018218  0.1120716347525155  0.2600320300959232
  0.0371863376725437  0.5377434407551064  0.1228144369022499
  0.7912768121812011  0.0751425178986736  0.0719226485173121
  0.3571210682371032  0.3557713125136324  0.2859754313363265
  0.0809526001765326  0.6791908845186296  0.1191625610777796
  0.1843672972878451  0.1057283828434984  0.1889832637686370
  0.2756807135508191  0.4469678164782910  0.2401822018357466
  0.1490099433356750  0.3152457651976435  0.0932072528923178
  0.5408794731778003  0.7743372837011542  0.2769584099203651
  0.2522575745390860  0.2527246174270568  0.2902388320804815
  0.7189455624065957  0.3993025998594448  0.0711042857917045
  0.8688969757813224  0.6576903563088067  0.1836814880865216
  0.4958432389292120  0.8757683096771789  0.1350383222730888
  0.3746210151343465  0.5887600056456541  0.3022551935706739
  0.6482969313001985  0.4241276491302113  0.2095036463779833
  0.8481133237491633  0.4001410137087057  0.3246980750171601
  0.7633446212548347  0.8208858468336520  0.2808716615776979
  0.6273929543670304  0.8238341799669443  0.1684947894704031
  0.6073296264638973  0.3169749428303522  0.2572986847889414
  0.4718404953576827  0.1470078801849534  0.1382372103602415
  0.5461035080432767  0.2659500213369623  0.1058601194419172
  0.4788190049641605  0.6599390639460868  0.1230866711674265
  0.0277789381176197  0.4775697169208765  0.3534334314007267
  0.9087185641366984  0.2694224427449213  0.3271707482316346
  0.0378337691184625  0.0495580450568164  0.3275450535495152
  0.3370339959519682  0.0124258120035815  0.1570106344094606
  0.3589605477096272  0.4954824866929913  0.1715969474711123
  0.1575078743545015  0.2897024219871300  0.3511831019381358
  0.1520742944958396  0.4306348266738047  0.3255888475982235
  0.6787619279860192  0.5756442831579086  0.1219442132551971
  0.2329696568898184  0.5513156073411023  0.1432189801077761
  0.1765696857283650  0.5539987434721118  0.2250151535737375
  0.0068769863717796  0.7148430361912007  0.1936921613745321
  0.7504584344911381  0.6223132646253385  0.3174780247896287
  0.9372609448600020  0.2949236602393395  0.1031738443810017
  0.6486660060585576  0.0681901982873144  0.1888824697321989
  0.0822239467653073  0.3802362982513919  0.2489030274529646
  0.9076723019973387  0.5329697734429538  0.0759903988530657
  0.0540879467613202  0.2395696374635413  0.1411948112802565
  0.7305892159890487  0.5841366261803929  0.0641106583579505
  0.5675492505937423  0.4795956347188128  0.0606444710028751
  0.3242772184738512  0.4104743653496375  0.0527742923303506
  0.4535463823282434  0.3538324905001041  0.1009291227898690
  0.4664716274360152  0.5992867180782011  0.3345761747024245
  0.5547763628191843  0.6291987822913715  0.3639712621000676
  0.5718501777431731  0.4741044147044153  0.3336839549539097
  0.2069990313395364  0.7154908797484318  0.3013400936320518
  0.3097184876282715  0.7379604347414851  0.3757572664478518
  0.2221458246778035  0.6273216735027961  0.3403059140727228
  0.2900630501346927  0.4539021230434495  0.3856614255506486
  0.5195158028992928  0.4038173266607501  0.2916718291556754
  0.4614300625519104  0.4017518145730087  0.4008004050048081
  0.1366090153525510  0.2334439997241712  0.4049669475474447
  0.5792241930562957  0.6945324754752951  0.3130655986252711
  0.5698457958317052  0.2926815636224996  0.3940741025081507
  0.3860932654212617  0.1903064135904220  0.3261363042648425
  0.7026742205231457  0.1398741389236299  0.4208906160049526
  0.9023349730870923  0.1712881295753086  0.3842835262320782
  0.8957978075370847  0.6887971257634227  0.3154832613494423
  0.7977775785036890  0.7912354932982111  0.4034602421180293
  0.9233509447992256  0.5470835959989012  0.3741053245601084
  0.7504629185662844  0.3571639595723394  0.3221700971231879
  0.8590677096972121  0.4514587764508385  0.3812387131043032
  0.0228280962191273  0.5361461288171775  0.4091532582699770
  0.9483915686993405  0.4120881252628690  0.3701293565790404
  0.9663909081502421  0.7642015848381670  0.3149150164034632
  0.0906970314472612  0.7176171142409904  0.3686431609771859
  0.1347944760357666  0.8385136152825166  0.3803635845669092
  0.9811713403609614  0.1188935081687656  0.3611444502744883
  0.0660913792117895  0.9724759561057278  0.3700235156524197
  0.5500287338586670  0.9111568136523331  0.3570756344030113
  0.3996134791853417  0.7904963857037981  0.3663144117064200
  0.3619775662339791  0.9030781187805208  0.3351239892892662
  0.7184265158000941  0.9881023624311586  0.3722492852746951
  0.5518050040148107  0.0258280764834636  0.3409162747112855
  0.9351612692031389  0.2988277517766574  0.3890505493484984
  0.8186211727187921  0.4257451310574961  0.0516414009535826
  0.6704616133215644  0.4894444074910478  0.0607853786717940
  0.7259394229849409  0.1833042667104891  0.0434400789398157
  0.3111016973395390  0.1009645482976172  0.0656160505471074
  0.1392589336881062  0.2431370906474833  0.0480477598861914
  0.2237627400159628  0.4861636609003728  0.0472661924470502
  0.2520214561960737  0.8223754210648578  0.0975079384972348
  0.4780277976799796  0.2780264368318253  0.0560090188150200
  0.4558561630815422  0.8170463861435676  0.0055957949795593
  0.1649360229529331  0.6700563326158998  0.0363926425860943
  0.4154422475039222  0.9740951525516864  0.0659589395436953
  0.0135001684335413  0.7218969056579326  0.0769475142601382
  0.8815953326432409  0.7969702641555766  0.0717707887333666
  0.7022481544178806  0.9287801821323700  0.0746304619550867
  0.5242595019752982  0.7366751422647024  0.0891187834874525
  0.2218395534213211  0.9605357139859972  0.0514111723990030
  0.9240855696229022  0.6208017136518690  0.0413906970663634
  0.9333119128745777  0.4541074004333751  0.0342746134975700
  0.5954546220947202  0.9628591896612628  0.0948710916636725
  0.7983597146895713  0.9710149932619899  0.0645690959186589
  0.7793155084760395  0.1030317271609194  0.0084042598280614
  0.2148184972031175  0.1563015541107914  0.0698377609425460
  0.9838613674163414  0.0385292806480672  0.0548483107411351
  0.9982305614886048  0.2828442192525635  0.0497551025103291
  0.9320778386543376  0.3992407377758928  0.0942281911161204
  0.1162924927715382  0.9375452204130574  0.0366940646228516
  0.6352175182212474  0.1411815670550092  0.0619248716484804
  0.3824857615879076  0.5247241895673622  0.4095792646480333
  0.4957400000736055  0.5258015622672506  0.5324170479546121
  0.5303096497207902  0.6966246941908255  0.4398139364814017
  0.6017803578096145  0.5010584911912640  0.4082190415469245
  0.5023371929749204  0.5633366481793465  0.4510460926391435
  0.4367531443893242  0.4964892690532414  0.4211025614381567
  0.4770130849040375  0.5797332328060373  0.5147057104050339
  0.4958871037337787  0.6554335439643313  0.4182370556684435
  0.5988651912485496  0.5211950463731648  0.4462253893011852
 
  0.00000000E+00  0.00000000E+00  0.00000000E+00
  0.00000000E+00  0.00000000E+00  0.00000000E+00
  0.00000000E+00  0.00000000E+00  0.00000000E+00
  0.00000000E+00  0.00000000E+00  0.00000000E+00
  0.00000000E+00  0.00000000E+00  0.00000000E+00
  0.00000000E+00  0.00000000E+00  0.00000000E+00
  0.00000000E+00  0.00000000E+00  0.00000000E+00
  0.00000000E+00  0.00000000E+00  0.00000000E+00
  0.00000000E+00  0.00000000E+00  0.00000000E+00
  0.00000000E+00  0.00000000E+00  0.00000000E+00
  0.00000000E+00  0.00000000E+00  0.00000000E+00
  0.00000000E+00  0.00000000E+00  0.00000000E+00
  0.00000000E+00  0.00000000E+00  0.00000000E+00
  0.00000000E+00  0.00000000E+00  0.00000000E+00
  0.00000000E+00  0.00000000E+00  0.00000000E+00
  0.00000000E+00  0.00000000E+00  0.00000000E+00
  0.00000000E+00  0.00000000E+00  0.00000000E+00
  0.00000000E+00  0.00000000E+00  0.00000000E+00
  0.00000000E+00  0.00000000E+00  0.00000000E+00
  0.00000000E+00  0.00000000E+00  0.00000000E+00
  0.00000000E+00  0.00000000E+00  0.00000000E+00
  0.00000000E+00  0.00000000E+00  0.00000000E+00
  0.00000000E+00  0.00000000E+00  0.00000000E+00
  0.00000000E+00  0.00000000E+00  0.00000000E+00
  0.00000000E+00  0.00000000E+00  0.00000000E+00
  0.00000000E+00  0.00000000E+00  0.00000000E+00
  0.00000000E+00  0.00000000E+00  0.00000000E+00
  0.00000000E+00  0.00000000E+00  0.00000000E+00
  0.00000000E+00  0.00000000E+00  0.00000000E+00
  0.00000000E+00  0.00000000E+00  0.00000000E+00
  0.00000000E+00  0.00000000E+00  0.00000000E+00
  0.00000000E+00  0.00000000E+00  0.00000000E+00
  0.00000000E+00  0.00000000E+00  0.00000000E+00
  0.00000000E+00  0.00000000E+00  0.00000000E+00
  0.00000000E+00  0.00000000E+00  0.00000000E+00
  0.00000000E+00  0.00000000E+00  0.00000000E+00
  0.00000000E+00  0.00000000E+00  0.00000000E+00
  0.00000000E+00  0.00000000E+00  0.00000000E+00
  0.00000000E+00  0.00000000E+00  0.00000000E+00
  0.00000000E+00  0.00000000E+00  0.00000000E+00
  0.00000000E+00  0.00000000E+00  0.00000000E+00
  0.00000000E+00  0.00000000E+00  0.00000000E+00
  0.00000000E+00  0.00000000E+00  0.00000000E+00
  0.00000000E+00  0.00000000E+00  0.00000000E+00
  0.00000000E+00  0.00000000E+00  0.00000000E+00
  0.00000000E+00  0.00000000E+00  0.00000000E+00
  0.00000000E+00  0.00000000E+00  0.00000000E+00
  0.00000000E+00  0.00000000E+00  0.00000000E+00
  0.00000000E+00  0.00000000E+00  0.00000000E+00
  0.00000000E+00  0.00000000E+00  0.00000000E+00
  0.00000000E+00  0.00000000E+00  0.00000000E+00
  0.00000000E+00  0.00000000E+00  0.00000000E+00
  0.00000000E+00  0.00000000E+00  0.00000000E+00
  0.00000000E+00  0.00000000E+00  0.00000000E+00
  0.00000000E+00  0.00000000E+00  0.00000000E+00
  0.00000000E+00  0.00000000E+00  0.00000000E+00
  0.00000000E+00  0.00000000E+00  0.00000000E+00
  0.00000000E+00  0.00000000E+00  0.00000000E+00
  0.00000000E+00  0.00000000E+00  0.00000000E+00
  0.00000000E+00  0.00000000E+00  0.00000000E+00
  0.00000000E+00  0.00000000E+00  0.00000000E+00
  0.00000000E+00  0.00000000E+00  0.00000000E+00
  0.00000000E+00  0.00000000E+00  0.00000000E+00
  0.00000000E+00  0.00000000E+00  0.00000000E+00
  0.00000000E+00  0.00000000E+00  0.00000000E+00
  0.00000000E+00  0.00000000E+00  0.00000000E+00
  0.00000000E+00  0.00000000E+00  0.00000000E+00
  0.00000000E+00  0.00000000E+00  0.00000000E+00
  0.00000000E+00  0.00000000E+00  0.00000000E+00
  0.00000000E+00  0.00000000E+00  0.00000000E+00
  0.00000000E+00  0.00000000E+00  0.00000000E+00
  0.00000000E+00  0.00000000E+00  0.00000000E+00
  0.00000000E+00  0.00000000E+00  0.00000000E+00
  0.00000000E+00  0.00000000E+00  0.00000000E+00
  0.00000000E+00  0.00000000E+00  0.00000000E+00
  0.00000000E+00  0.00000000E+00  0.00000000E+00
  0.00000000E+00  0.00000000E+00  0.00000000E+00
  0.00000000E+00  0.00000000E+00  0.00000000E+00
  0.00000000E+00  0.00000000E+00  0.00000000E+00
  0.00000000E+00  0.00000000E+00  0.00000000E+00
  0.00000000E+00  0.00000000E+00  0.00000000E+00
  0.00000000E+00  0.00000000E+00  0.00000000E+00
  0.00000000E+00  0.00000000E+00  0.00000000E+00
  0.00000000E+00  0.00000000E+00  0.00000000E+00
  0.00000000E+00  0.00000000E+00  0.00000000E+00
  0.00000000E+00  0.00000000E+00  0.00000000E+00
  0.00000000E+00  0.00000000E+00  0.00000000E+00
  0.00000000E+00  0.00000000E+00  0.00000000E+00
  0.00000000E+00  0.00000000E+00  0.00000000E+00
  0.00000000E+00  0.00000000E+00  0.00000000E+00
  0.00000000E+00  0.00000000E+00  0.00000000E+00
  0.00000000E+00  0.00000000E+00  0.00000000E+00
  0.00000000E+00  0.00000000E+00  0.00000000E+00