 O Si  H Mo  S 
1.0
       21.3948993683         0.0000000000         0.0000000000
        0.0000000000        21.3948993683         0.0000000000
        0.0000000000         0.0000000000        34.1699981689
    O   Si    H   Mo    S
  236  102   68    1    4
Cartesian
6.05339504 15.22082179 3.44326656 F F F
13.08846628 13.37115026 6.93689233 F F F
3.22724231 8.36002613 3.13949263 F F F
8.13824931 9.43976792 4.82041895 F F F
14.47807114 18.15367697 4.62605757 F F F
2.19397073 9.99000138 12.04880498 T T T
0.09180833 16.26312777 10.28071823 T T T
14.08112353 3.06877806 6.70409503 F F F
4.58709466 19.61529310 7.03046553 F F F
18.08287080 11.40318535 3.50849514 F F F
8.82475952 16.45649554 7.14940062 T T T
11.09123217 11.81814949 7.74271915 T T T
2.46500560 10.98625096 7.36168743 T T T
13.08263718 10.64369022 11.55061722 T T T
9.30721486 13.86207890 7.58399068 T T T
2.65004687 8.92421130 9.59231884 T T T
11.12983354 15.72118334 8.11566520 T T T
6.80091698 21.03328342 6.81633603 F F F
6.91832408 18.34081904 6.55547160 F F F
17.44726798 18.71449106 9.34761556 T T T
20.87943265 5.31426001 10.58349469 T T T
21.12587699 0.91486191 9.97442644 T T T
0.06990253 0.44230025 5.98946154 F F F
2.11205599 6.33922184 4.33089731 F F F
12.64973303 15.62420297 10.29171127 T T T
9.09489327 12.48379940 11.65298639 T T T
17.12649910 6.99573852 5.66141433 F F F
1.37914905 4.36256078 8.98735961 T T T
11.17460323 14.75577405 3.03722886 F F F
3.30124550 13.14819448 8.57565483 T T T
11.82114757 3.80449546 7.91709194 T T T
15.37510741 8.84837242 6.59836278 F F F
10.94449466 20.33190014 4.27294073 F F F
5.43167954 18.47868856 3.70195630 F F F
13.42534776 16.00262014 5.97129273 F F F
15.85853894 19.37307489 2.69160807 F F F
14.87064980 18.22322448 9.56995191 T T T
15.42766241 14.57707914 6.87884715 F F F
4.80564067 6.08743936 6.20025647 F F F
2.41560553 1.31685539 3.49206490 F F F
12.07642036 3.89259765 10.96226721 T T T
16.69905806 14.35549807 11.92286317 T T T
4.43617023 6.10752815 8.81132539 T T T
13.16333535 11.46404595 4.45471741 F F F
7.10576646 9.94145317 7.21946329 T T T
6.77825414 7.17848166 4.78139290 F F F
6.47782526 20.80577633 4.18762784 F F F
10.67270757 12.53072679 4.33864997 F F F
18.62196380 9.94117836 10.33919773 T T T
12.68182433 1.35743003 10.02553719 T T T
9.84298523 2.99534458 6.32959905 F F F
10.26284628 16.95067985 10.36991713 T T T
10.98505862 8.82224731 10.90854542 T T T
2.13609545 18.03023546 10.40984849 T T T
6.62688943 8.87018978 9.52613862 T T T
16.71855003 2.77447446 11.62380468 T T T
10.50898265 14.97877191 5.58707919 F F F
21.15800272 19.16044852 5.73313384 F F F
18.98458846 15.61344380 11.31998849 T T T
13.09489857 12.30475763 9.36255468 T T T
16.96535271 17.57879448 4.29259225 F F F
18.96823867 7.23328043 10.63822362 T T T
17.56817050 9.81587692 5.59446882 F F F
13.65514900 5.63846023 7.76500105 T T T
19.19590006 17.43977980 5.57336106 F F F
18.71914312 2.02260540 10.08990069 T T T
9.49921429 19.51940942 10.81043905 T T T
2.29268463 1.28250621 10.51775032 T T T
0.74456913 9.08160085 7.64887557 T T T
12.27138217 17.93281513 9.06535672 T T T
0.07968915 2.80694832 7.26920487 T T T
4.66135257 6.13612913 3.56179889 F F F
9.37117684 18.59375942 5.64428270 F F F
8.82306027 0.14198470 5.21980787 F F F
2.67699227 2.73760262 7.34140454 T T T
2.15729767 20.10303747 6.06894899 F F F
6.47830347 19.31865295 8.89563522 T T T
7.74277650 16.62206700 4.81379818 F F F
12.63610459 0.91601799 7.38904986 T T T
6.80916648 1.84962116 5.17357703 F F F
8.77009592 7.55342126 8.59407262 T T T
11.04727990 4.45303968 4.49640439 F F F
14.89224081 7.01794036 2.12639550 F F F
17.94341106 15.14115146 5.15969851 F F F
17.89547879 14.34352616 7.72066230 T T T
13.28758408 5.51775091 3.64726938 F F F
8.14884843 16.44067369 2.28546676 F F F
9.00404996 0.76490953 10.39926075 T T T
6.71795591 11.70582038 10.76952295 T T T
5.25802245 2.67184160 7.30072725 T T T
15.84280764 11.72544625 4.92636760 F F F
13.50287570 1.26682616 4.89173113 F F F
17.42120982 20.59262329 7.44897337 T T T
3.59483847 7.79641800 11.83324471 T T T
5.17717603 14.87538730 10.77514320 T T T
0.93875791 15.42424606 5.18641327 F F F
14.26961989 13.85978475 4.63295380 F F F
15.15006663 0.51076389 6.85418028 F F F
13.86095796 18.45121616 7.09136462 F F F
8.81909174 7.56935915 3.02748534 F F F
11.14112703 5.65421130 2.08123061 F F F
19.52518241 18.89939891 7.76074691 T T T
11.32011524 7.18558281 4.24099881 F F F
8.65435619 3.38455949 3.99309384 F F F
16.48925761 16.45724155 8.40823733 T T T
13.56187446 20.97531505 2.85851181 F F F
4.58591762 10.11633704 11.01741773 T T T
1.15116884 14.53316769 7.62817516 T T T
18.97953470 20.77932412 9.59949919 T T T
3.94739292 0.66264761 6.15658829 F F F
7.20652345 1.91903971 8.93230481 T T T
0.93607545 13.16201166 9.88159714 T T T
19.64824263 2.35873003 5.43791758 F F F
9.57516285 3.05585514 8.95622574 T T T
3.88356005 2.97448524 4.96874756 F F F
2.82168973 21.16662841 8.36310936 T T T
6.85885985 18.90764203 11.48988311 T T T
6.32971815 2.91817499 2.74236469 F F F
18.50308381 5.81760084 3.71089178 F F F
19.05061760 16.38548533 3.11140157 F F F
2.47729392 15.36538885 9.78792770 T T T
10.18664140 17.95674747 3.21214367 F F F
9.32664881 0.27154541 2.54476268 F F F
4.68538566 17.98322518 10.41366525 T T T
17.29731688 1.29003648 5.72823305 F F F
20.18861597 14.36336117 6.38929751 F F F
6.85693488 6.18610624 9.88271223 T T T
19.60870523 1.09677926 7.77710867 T T T
17.11123071 12.09966152 10.55198810 T T T
7.63378341 14.12948555 10.05636963 T T T
10.61533919 6.15345830 11.26909974 T T T
14.14091039 2.54169171 11.83056442 T T T
19.70435171 12.42670839 10.03581026 T T T
20.77753242 11.74608084 3.41466760 F F F
10.94659370 21.04470443 9.07758399 T T T
8.62087170 14.27827492 3.83956047 F F F
8.19747443 3.09078766 11.21787697 T T T
10.18091304 7.88821391 6.42775837 F F F
0.47930391 10.83610603 5.60718489 F F F
1.75672329 10.55330473 3.28445892 F F F
4.38124042 12.42318874 6.26099109 F F F
20.98881086 5.47204393 4.55413286 F F F
4.18585013 10.45565294 4.44633693 F F F
7.86141165 19.14192828 2.63630199 F F F
6.57659989 11.50942265 5.11979312 F F F
15.84630944 8.63060174 3.98812203 F F F
3.34080170 14.94053015 4.02311364 F F F
12.03770676 13.16811876 11.56444024 T T T
13.13750036 6.26917380 10.32492969 T T T
9.69885367 5.35370974 7.47679355 T T T
5.59017855 3.83511386 9.62247510 T T T
14.68706437 12.71285208 11.43148712 T T T
11.41086481 7.05105950 8.55714844 T T T
8.47970378 7.80886047 11.19168920 T T T
6.41258039 4.52818771 4.80865197 F F F
12.82515058 8.36800209 6.11083913 F F F
11.48472645 10.93095803 2.39786688 F F F
5.08718873 8.37453257 7.47718510 T T T
13.74799634 8.22879293 8.55520646 T T T
0.86354891 20.57970260 3.80812873 F F F
18.25306881 12.51778315 5.85388515 F F F
14.77649152 12.21952600 2.52535887 F F F
13.47702285 10.65989591 7.35784318 T T T
1.51865884 3.74595610 3.98914445 F F F
19.49498739 5.71006087 12.82974548 T T T
17.87500998 2.47054378 3.46481373 F F F
10.71354060 1.70635324 4.22034549 F F F
13.46693956 20.33549630 8.98451334 T T T
4.91282261 12.86760189 3.66506649 F F F
1.41655632 4.90419182 6.40069126 F F F
16.31368065 20.12814941 5.17597269 F F F
17.58155027 4.12129931 5.53819251 F F F
4.72715822 5.50462619 11.38096904 T T T
0.54548592 2.38919397 12.09461321 T T T
15.51040479 1.32004643 3.19784916 F F F
6.55587604 8.84007000 2.68644531 F F F
16.58893001 16.87096234 11.04766768 T T T
1.56510419 12.95651003 4.37069730 F F F
18.35756160 4.62138733 10.75699120 T T T
2.71393967 7.39588251 7.34846167 T T T
0.86170101 6.99417763 9.20373864 T T T
14.08470311 3.47756018 9.28094245 T T T
4.92299261 10.88388399 8.37654592 T T T
15.81752737 14.08482298 9.42723896 T T T
15.88229148 5.35782684 3.98660775 F F F
0.15370142 10.67979724 10.55484660 T T T
4.59377434 12.57213240 12.15183912 T T T
6.87794949 16.75425535 9.78259259 T T T
2.05939849 5.67026141 11.17557898 T T T
8.73456595 11.85959209 9.07498212 T T T
15.78695488 0.37889307 12.13979515 T T T
8.91958538 11.52028256 6.38014971 F F F
1.09428075 14.89521084 2.59266589 F F F
21.30511260 11.55895407 8.05533792 T T T
11.08771889 9.85987636 4.81397741 F F F
21.17310916 16.81219821 7.11656968 T T T
3.65803244 20.40426975 10.68361636 T T T
11.93561652 18.04130705 5.22560124 F F F
4.72042944 1.24830129 9.53227924 T T T
7.29141905 15.64084989 12.19877160 T T T
6.06553146 10.61622994 13.16770985 T T T
10.25685777 7.81539032 13.25038421 T T T
3.21467869 5.86818177 13.57150107 T T T
12.71476493 5.63781815 12.88535223 T T T
15.55733727 2.23153455 14.03973624 T T T
19.25751816 2.85685880 12.56073226 T T T
17.64053118 16.36282695 13.44386880 T T T
18.84013362 11.57185945 12.46424811 T T T
18.53976596 8.75441371 12.71977335 T T T
16.54390527 8.46120649 10.82701058 T T T
0.17479606 11.49881907 13.01839700 T T T
21.27623744 8.82694910 12.51716643 T T T
11.65743157 18.52561722 12.07515976 T T T
2.02839369 16.22791342 12.27967914 T T T
3.33247442 18.80441683 12.68272392 T T T
0.72366635 21.03171743 11.99828895 T T T
9.22768225 17.61648152 12.72071940 T T T
11.14486729 21.24433743 11.79037440 T T T
14.08981426 9.51813687 2.12841195 F F F
16.59542095 9.00821297 1.43467567 F F F
14.69991747 4.36288724 1.78557696 F F F
2.73252240 6.15468444 1.72225587 F F F
3.85221062 10.56290151 1.74158610 F F F
9.32318208 18.24709179 0.68351178 F F F
4.37362376 14.52794687 1.58839769 F F F
5.70256823 20.32452545 1.69186030 F F F
19.26483164 12.46214335 1.35107130 F F F
19.43395590 9.85527786 1.97649787 F F F
17.58811391 0.19496097 1.96765290 F F F
16.72526032 2.61959792 1.15830095 F F F
3.61106425 3.47219845 2.36369757 F F F
0.57657010 0.62588756 1.58179079 F F F
2.82561299 20.68328105 1.91100617 F F F
20.41499703 5.98721415 1.94415471 F F F
20.23282838 7.89373568 3.89142861 F F F
13.10911489 2.19349794 2.37231456 F F F
7.57877613 8.25426958 3.84781314 F F F
4.66001262 14.39502654 3.18959827 F F F
6.74885613 15.36701732 10.65170753 T T T
7.64187286 15.57293595 3.59414282 F F F
6.26730175 18.26044860 10.12765584 T T T
9.51613731 12.25764278 7.70159174 T T T
8.50294877 2.22153351 9.86872118 T T T
13.43014520 4.00950389 7.87133005 T T T
19.62581124 0.86765190 9.39128831 T T T
1.64057214 16.49603293 10.68782009 T T T
17.46028559 15.80467555 11.92558928 T T T
17.43971476 11.35708686 5.01645551 F F F
8.86507290 17.91650614 2.21113544 F F F
11.36596122 8.36304780 5.39510990 F F F
10.05091364 7.66028662 11.64708507 T T T
14.00134990 14.47686605 6.12577469 F F F
9.94796452 15.26868010 7.10418558 T T T
16.50983481 8.53024391 5.46464099 F F F
18.26432277 16.63380044 4.54059294 F F F
18.34476716 19.75453350 8.50239863 T T T
18.58616285 11.50673956 10.83755657 T T T
13.24634042 2.82244881 10.51668004 T T T
16.56819978 21.32539139 6.27972406 F F F
12.70250864 12.04044469 7.81598196 T T T
13.23175811 12.14377957 10.96547398 T T T
20.56445461 1.66063287 6.59474205 F F F
7.05147905 3.16085228 4.21746637 F F F
6.19911045 19.58727618 7.31669235 T T T
15.91579574 18.82935151 4.24852361 F F F
16.40082131 14.86178054 8.12951164 T T T
20.28257404 18.08772817 6.57742356 F F F
15.55789838 1.97206192 12.42163647 T T T
3.43869929 18.83253704 11.04706991 T T T
1.64102453 0.11993064 2.71575762 F F F
10.00057308 6.93231851 7.74019365 T T T
0.96557228 5.57538964 9.98516183 T T T
10.21923068 3.80673159 7.67858529 T T T
4.27667527 6.97793942 7.44289640 T T T
1.96743378 14.04486093 8.94906270 T T T
2.86026496 2.86842965 3.68757294 F F F
0.89724031 10.61789795 7.15418532 T T T
8.21417618 17.51362741 6.07190677 F F F
10.12732893 21.00209372 10.50486723 T T T
13.61649662 18.73592904 8.68384180 T T T
5.67191476 5.97841949 4.82448979 F F F
13.89543778 1.14021322 3.31353293 F F F
12.45747344 0.21342977 8.84736361 T T T
3.28132664 9.97069049 3.15604761 F F F
11.59452039 11.20858188 3.99955626 F F F
9.95334729 0.26437391 4.05472665 F F F
17.28901510 5.58051162 4.76838863 F F F
14.72045768 5.58320365 2.87636060 F F F
12.11921343 5.48627811 11.36846784 T T T
10.17182444 18.13549594 11.51285596 T T T
1.39031118 3.71372835 7.50358468 T T T
3.38536863 0.33928418 9.78414353 T T T
18.06972695 2.59175092 5.08366325 F F F
21.23294065 11.97601088 9.62513909 T T T
6.33756148 19.66015460 3.03994530 F F F
18.26400396 3.05574037 11.24549653 T T T
5.49069042 11.27202866 11.76907062 T T T
0.70364252 20.44220927 5.42703197 F F F
3.39214077 20.72158784 6.90930128 F F F
5.66284082 2.40334031 8.86006951 T T T
0.80919160 11.52171465 4.17427198 F F F
16.92860170 1.60566672 2.45818983 F F F
7.65280609 7.61652628 9.78461502 T T T
1.74410324 14.55470131 4.07091248 F F F
3.94537932 2.26737934 6.43661951 F F F
5.90173003 9.56126980 8.20902812 T T T
3.18975422 6.74800746 3.17810217 F F F
11.56946329 16.52557121 9.47675091 T T T
5.40850660 5.40749024 9.91150390 T T T
15.38141600 8.54491422 2.42110475 F F F
18.57906871 14.08024234 6.25824971 F F F
10.61463335 18.74000342 4.60264174 F F F
8.04943936 12.56353859 10.39990638 T T T
13.87031692 9.08298193 7.14587562 T T T
18.14582790 8.56789013 11.10523067 T T T
16.34836960 17.56512269 9.59835050 T T T
13.42594585 17.63125257 5.75170540 F F F
13.01765246 6.78347176 8.77710491 T T T
10.09471734 3.14508591 4.72505193 F F F
11.68352927 5.68718825 3.61608256 F F F
10.23762595 14.10818530 4.21101057 F F F
0.59716535 10.21115972 12.04782126 T T T
19.44678732 5.76502798 11.17710446 T T T
0.81436141 1.06305717 11.18839486 T T T
7.20622632 0.26866729 5.36077995 F F F
7.68876199 10.59710141 5.86938742 F F F
3.37303264 6.19365882 11.98160030 T T T
3.25561917 9.19877139 11.09366634 T T T
14.52021640 12.31667598 4.15473987 F F F
5.00469535 11.80482838 4.87922636 F F F
3.79261122 11.85608136 7.67461323 T T T
0.13613382 15.29176823 6.60999025 F F F
16.07215362 13.31650260 10.83783050 T T T
20.04999533 6.31491011 3.51303238 F F F
13.87324868 1.44451331 6.44716243 F F F
1.76171902 8.11057925 8.46458034 T T T
19.42181183 11.40387015 2.59123843 F F F
1.15391084 5.12325111 4.81293259 F F F
15.66074994 12.45839544 2.19909682 F F F
12.11188465 10.25430794 2.07009297 F F F
6.99201610 8.89559438 1.82039457 F F F
9.70721730 7.56608244 3.44586003 F F F
10.02624612 12.74229089 11.49830890 T T T
12.04587464 13.28176646 12.53218702 T T T
12.30929364 10.06422837 11.35684648 T T T
4.44378243 15.29961348 10.28549732 T T T
6.60174243 15.87476631 12.84070186 T T T
4.75603975 13.39669577 11.62825587 T T T
6.22446341 9.65840512 13.13743851 T T T
11.12436533 8.65574046 9.95737628 T T T
9.79161238 8.49812009 13.78029546 T T T
2.87780582 4.98889008 13.80380295 T T T
12.34957450 14.80327529 10.73828012 T T T
12.22792597 6.24613922 13.46650763 T T T
8.13111883 4.05404372 11.12191422 T T T
15.05816041 2.99949962 14.35808524 T T T
19.30754054 3.66285793 13.11743312 T T T
19.19676212 14.77270280 10.87805107 T T T
16.92711988 16.90347701 13.81449455 T T T
19.76747714 11.70967414 12.77741577 T T T
16.04407676 7.66382540 11.05893262 T T T
18.38185356 9.67604991 13.02593785 T T T
0.54881030 11.52025578 13.91375063 T T T
20.29559291 8.82157398 12.66096493 T T T
20.70515261 16.40226615 10.85296006 T T T
2.05133677 15.30561984 12.58193421 T T T
2.95888561 17.96502247 13.01560266 T T T
20.99493454 2.54252317 12.33610871 T T T
1.41551637 20.81079821 12.64140761 T T T
11.77060361 19.49313958 12.19771151 T T T
8.54712037 16.93159850 12.52203412 T T T
7.74777989 19.31475072 11.43765829 T T T
15.37876734 21.13631862 12.74450387 T T T
11.79520545 0.56238872 11.64569605 T T T
20.04875198 6.36047236 13.28988481 T T T
17.51067014 9.10742373 1.75588774 F F F
14.33705944 10.47120571 2.07365208 F F F
15.52973225 3.91803923 1.48170616 F F F
6.66490101 2.16571566 2.22392306 F F F
2.99460399 5.21031335 1.62957054 F F F
4.77700367 10.33010219 1.56100547 F F F
5.42661494 17.57628482 3.34797922 F F F
10.22956646 5.94354053 1.90330939 F F F
9.77018332 17.56090293 0.16609767 F F F
3.44999278 14.44873945 1.29937793 F F F
8.87912089 20.84772265 2.25243469 F F F
0.36287034 15.53703425 2.61321152 F F F
18.61742397 16.75523345 2.32604706 F F F
15.02095797 19.88686977 2.54921641 F F F
11.25244487 15.72451170 3.04511518 F F F
4.74500546 20.54629526 1.75174562 F F F
19.88418923 13.20903851 1.34660955 F F F
19.96630801 9.71161559 1.17560289 F F F
12.74153595 20.59802391 3.23520537 F F F
17.08483334 20.77253860 2.20262335 F F F
16.67790573 2.19548396 0.28737062 F F F
4.59367455 3.34542061 2.37087818 F F F
21.05387337 0.79232167 1.85197002 F F F
21.35008632 6.06143540 1.68719297 F F F
19.95007937 8.54789827 3.21850247 F F F
2.50082823 20.04941000 1.25044351 F F F
13.59295322 3.01868522 2.11428164 F F F
7.98826058 11.88142029 14.05720697 T T T
10.47081166 11.08177375 18.32621740 T T T
11.22929552 14.93813781 15.68109501 T T T
12.65127989 10.88997324 14.09121665 T T T
10.50216843 12.10869657 15.62240268 T T T
8.91687232 10.96252394 14.43722187 T T T
10.02589033 12.27507270 17.83496763 T T T
10.51779963 14.19561161 14.78432894 T T T
12.50829030 11.09872545 15.43077148 T T T
