 O Si  H Mo  S                          
   1.00000000000000     
    21.3948993682999991    0.0000000000000000    0.0000000000000000
     0.0000000000000000   21.3948993682999991    0.0000000000000000
     0.0000000000000000    0.0000000000000000   34.1699981689000012
   O    Si   H    Mo   S 
   236   102    68     2     6
Direct
  0.2822549383244115  0.7114471502080154  0.1006495801902994
  0.6128530497884835  0.6248301029426043  0.2007227687943342
  0.1541525353494401  0.3908373282536142  0.0931647317373043
  0.3809281522917990  0.4383005115854339  0.1425055996105023
  0.6785276655877782  0.8494679332951396  0.1354674807083459
  0.1066794967326749  0.4714921018890914  0.3538929796450641
  0.0029924603304131  0.7638531250954169  0.2946969195366309
  0.6599664088988093  0.1433142749941625  0.1968966097972846
  0.2148617626548396  0.9160815142699948  0.2049254829507590
  0.8455564312637094  0.5336217162677335  0.1017272114894131
  0.4117642879306468  0.7671849438919366  0.2082743939589007
  0.5210450543824545  0.5499450608605727  0.2239807402932915
  0.1172152184397238  0.5142827502231442  0.2165477034088383
  0.6106976466796676  0.4990875224279415  0.3357323706736825
  0.4405859042574559  0.6473060720964356  0.2208403140964495
  0.1293630279023422  0.4170549180077605  0.2836671815969753
  0.5216915287596211  0.7382613903332167  0.2354971047123680
  0.3188505812255316  0.9820904960160444  0.1994438891360145
  0.3241283331591029  0.8563886690497938  0.1925132287493147
  0.8135629914757683  0.8760103313650699  0.2734499097209468
  0.9819065848950596  0.2481999647327491  0.3147906515304228
  0.9860100610631892  0.0441524680774869  0.2942296132814876
  0.0045091676060855  0.0217994915749850  0.1775729238436628
  0.0981404959310597  0.2985142835139113  0.1279019542587642
  0.5917567384124194  0.7331785005114124  0.2995180762804118
  0.4287867408801847  0.6038262836449094  0.3340147228699589
  0.8037388218783909  0.3275304847105592  0.1646633302731220
  0.0657539969456403  0.2045592208928032  0.2642770544840272
  0.5207488480109030  0.6914692373549031  0.0865562928139059
  0.1554649512793396  0.6150043670655247  0.2526133471536120
  0.5540242230690307  0.1777105877226283  0.2324961521596304
  0.7212134762360192  0.4124256971761137  0.1928829018703291
  0.5109246705499915  0.9501655892674399  0.1241727153584021
  0.2537625669503944  0.8635581877010202  0.1083117015445130
  0.6286151195088110  0.7486902902103466  0.1740898712483461
  0.7425425600483534  0.9064263012847897  0.0787155842355322
  0.6938473350941968  0.8501659793679061  0.2802196387738735
  0.7224485078648053  0.6814387933221825  0.2001405947394075
  0.2224927361260641  0.2833101557800952  0.1834236414582553
  0.1106903508879943  0.0629935832610686  0.1029425515347390
  0.5658228270830902  0.1797822447426601  0.3215410392458825
  0.7825305354697423  0.6697598219167823  0.3474684024701552
  0.2064703477536135  0.2877975385977066  0.2597838182407888
  0.6166101592923777  0.5373984400625497  0.1301233823114077
  0.3314690933352448  0.4678869328826479  0.2116557532079046
  0.3163292149911853  0.3335053568647661  0.1428532968119592
  0.3028204390494753  0.9722057832032628  0.1224040603809512
  0.5002601209531079  0.5872886774864627  0.1255855691096515
  0.8739420387625786  0.4642325375658412  0.3022385735720376
  0.5939847325134260  0.0628258647101166  0.2934540024649235
  0.4621508125071459  0.1397536258344602  0.1854019721631386
  0.4785368422056581  0.7920183276812701  0.3021609194198819
  0.5128438701485633  0.4081361530375507  0.3205066223479848
  0.0986973939598275  0.8450798035871401  0.3026135177128078
  0.3110639289625304  0.4136704330727591  0.2785422051635548
  0.7821576923219420  0.1373846178381355  0.3421575300588898
  0.4919295519775058  0.7023686641046324  0.1615507275751436
  0.9884381103046794  0.8970351501285542  0.1690955692769193
  0.8876054074095960  0.7249254164008223  0.3228787654494332
  0.6137872436007314  0.5767066685231710  0.2716356133510777
  0.7953581697538057  0.8233517713133729  0.1256854490440243
  0.8930302891058329  0.3380250219056204  0.3109810324200433
  0.8219795879842829  0.4598027978349203  0.1628758343250900
  0.6398388268036106  0.2629484974869428  0.2276203448230172
  0.8979836525166138  0.8154009001383713  0.1638887035161643
  0.8714165592071929  0.0919884630644905  0.2969599789854211
  0.4434365978281243  0.9121904362987624  0.3157800388575248
  0.1069173149715135  0.0597618963647425  0.3070034676037609
  0.0357775275663920  0.4270701942434449  0.2293268826421091
  0.5716390290054084  0.8418021646320079  0.2653008542280654
  0.0035061833771925  0.1334235825377786  0.2138650840378799
  0.2176859506062260  0.2848816126457526  0.1063811942149046
  0.4391998393278846  0.8679518675369459  0.1653150691887500
  0.4126458717883764  0.0062321328114901  0.1524911896576055
  0.1247534075882810  0.1264686855311815  0.2161636314043870
  0.1012673543780546  0.9395154945011146  0.1771055605970121
  0.3013253503783321  0.9033714767935445  0.2605766222155018
  0.3610139303128725  0.7783122532202319  0.1399041098248755
  0.5913320166030439  0.0430221392441008  0.2161919732839481
  0.3186607175329586  0.0857313036756748  0.1517247490428210
  0.4120835496709362  0.3544602458211814  0.2500748782033063
  0.5169244610281033  0.2083463401933640  0.1314748633132207
  0.6963682167421028  0.3282449478457465  0.0617280731899937
  0.8421515754849386  0.7076181283315155  0.1492224176531450
  0.8382008378893422  0.6722420635709048  0.2246737522798651
  0.6222469977008601  0.2571107723717271  0.1065076196520305
  0.3796964245952450  0.7683395246016492  0.0661365406605520
  0.4211445178081401  0.0356625349104498  0.3036207047965882
  0.3223317681304422  0.5456210365557632  0.3162116282141136
  0.2457382832572678  0.1248191124899937  0.2141118415864359
  0.7414469503857781  0.5499031464102487  0.1436728358942113
  0.6317498938975636  0.0601132641888350  0.1433260735876272
  0.8161540777526223  0.9628206060767756  0.2176416929443920
  0.1670670008468716  0.3653774141589535  0.3511262616367367
  0.2402341538097379  0.6959546309317172  0.3163974373778322
  0.0454216581383958  0.7206857815737561  0.1515059410942728
  0.6683681461882907  0.6498570235972504  0.1339216688753667
  0.7090287113716390  0.0237612859332648  0.2006091505865076
  0.6479095738467143  0.8623261964165501  0.2075639017248281
  0.4109331051033522  0.3482515191973961  0.0910454938504720
  0.5212882887368648  0.2635720478540716  0.0606264553463794
  0.9128614065397436  0.8814231511863188  0.2285399800148945
  0.5309462659463605  0.3364960067379091  0.1227935152677024
  0.4045085085539306  0.1585123742187141  0.1174962920418131
  0.7704474204095906  0.7701803246180413  0.2448042225469355
  0.6358204246481327  0.9814880901444332  0.0837459193492663
  0.2211097429885444  0.4695567214302701  0.3272377575725312
  0.0562936107454778  0.6793404088887764  0.2230177712388267
  0.8878231718801121  0.9705017207948858  0.2811607859909115
  0.1847685554959473  0.0309317916402283  0.1803759481413320
  0.3363420717291896  0.0917818467613392  0.2625297896265892
  0.0443931038576476  0.6185482599230401  0.2903867359593463
  0.9195718994400660  0.1105132844819330  0.1600119792292421
  0.4483768066127281  0.1429236391050069  0.2621536447560015
  0.1802777281688144  0.1396867266840624  0.1464622544400970
  0.1324586108188373  0.9879650475753148  0.2446353821381801
  0.3189723908866107  0.8856254355906241  0.3362455959483300
  0.2955951746607732  0.1388064412812189  0.0814125567298879
  0.8666814162104890  0.2713733905623740  0.1073312900288660
  0.8921459358066680  0.7669001359907902  0.0906577845608742
  0.1166658699155493  0.7205935890754576  0.2864560224970082
  0.4752316348338385  0.8384937525585612  0.0939522567404150
  0.4350956067158652  0.0129453633558084  0.0740166768769233
  0.2177696973920165  0.8406798739823189  0.3049663274432189
  0.8091800991580728  0.0613917925918842  0.1677935278912777
  0.9457682590915699  0.6711215425068707  0.1871852291489397
  0.3226320888554469  0.2874216715462742  0.2849058124800311
  0.9167623209102952  0.0534809854411532  0.2292337550081248
  0.8004083648486260  0.5635318110729988  0.3074438658782021
  0.3466318768579974  0.6583676342602324  0.2863406706087412
  0.4951907484696805  0.2830807573182633  0.3279872043707981
  0.6628049949980342  0.1169030542937694  0.3465272842901296
  0.9221544470482073  0.5816671265222422  0.2942839355038735
  0.9712669446243376  0.5476000025104202  0.1026504865060486
  0.5126240181317228  0.9833999586242830  0.2655983732307545
  0.4025451179812335  0.6678936031058149  0.1120316284008358
  0.3834847340665464  0.1459111653320833  0.3281447120751182
  0.4790678229948444  0.3682512993399438  0.1871509800040022
  0.0244491720051742  0.5041169481389198  0.1660950778821632
  0.0821792827495445  0.4916680178910129  0.0973270347828656
  0.2099186025777174  0.5795609910961480  0.1858903840682418
  0.9811842319419418  0.2570260404813013  0.1356706552582747
  0.1945150764488876  0.4890076899819580  0.1327378193677095
  0.3669825736144950  0.8946931687656686  0.0763542524617582
  0.3088594666901018  0.5365362354251217  0.1482336000303195
  0.7416269237135368  0.4029683410718354  0.1163477472708301
  0.1559432254149262  0.6972680178747869  0.1167945881855177
  0.5633222486809917  0.6178658004909799  0.3349815862233728
  0.6139869645708889  0.2920163156877703  0.3022601597369433
  0.4550649634070499  0.2502623761353481  0.2185855321338740
  0.2569020090810110  0.1793779412138055  0.2825564755441021
  0.6871973982311814  0.5943556728729246  0.3324387519443952
  0.5349097037472272  0.3297424483238098  0.2502114295518584
  0.3959418574654412  0.3610569877995821  0.3263897417900856
  0.2992293688423542  0.2102696266918014  0.1434547050135061
  0.6023283640368436  0.3911292256228478  0.1773566820698177
  0.5391504927665528  0.5123233966321424  0.0693689617504524
  0.2383466420282947  0.3918618684731859  0.2187190445604253
  0.6443411233370040  0.3836283971370946  0.2497164346258088
  0.0375149240366983  0.9640053142778903  0.1124137067610822
  0.8543263113509667  0.5857475950843031  0.1705668840799688
  0.6916296413911330  0.5714553223259308  0.0730686585244873
  0.6334821525676766  0.4977160504878176  0.2143253211497843
  0.0710558504159408  0.1774296443049417  0.1170876415604194
  0.9065773488543818  0.2668037272561575  0.3761411807770972
  0.8377251770339366  0.1155091409646444  0.1013379467775722
  0.5004735722230427  0.0798392872772492  0.1227766272660563
  0.6313582139822872  0.9512540870748570  0.2628132200629905
  0.2291572012215754  0.6008446449143071  0.1088893388536615
  0.0687040928333720  0.2293303168671107  0.1884192696450640
  0.7635264476376408  0.9420048079420703  0.1512576258789053
  0.8236615580817013  0.1934306036982632  0.1615880806489924
  0.2283486644331059  0.2631645679707912  0.3344363439631224
  0.0288939645889348  0.1101193461053457  0.3559006084060370
  0.7263983760986890  0.0626307960463186  0.0939540469941536
  0.3061727339498494  0.4104837365601989  0.0808794045244914
  0.7771140345541341  0.7878763278494449  0.3223019056410575
  0.0741857105640127  0.6039696052477710  0.1299929340614343
  0.8632548099395028  0.2158601034567465  0.3125827234065393
  0.1265233647038509  0.3480938723635394  0.2169977703670729
  0.0441033644525538  0.3277596290243797  0.2735941010498110
  0.6599443362316979  0.1624486574588252  0.2724109050097316
  0.2304795411010168  0.5081593901565106  0.2485208407705770
  0.7422229722634971  0.6579837293445427  0.2743900927155077
  0.7442684435528907  0.2512508926701641  0.1158639358989900
  0.0104476623871771  0.5017812601838416  0.3101449085658499
  0.2204743938946067  0.5877791029915713  0.3542123212479337
  0.3202094745091978  0.7838056671366062  0.2865135147717668
  0.1038681360942420  0.2621343925274084  0.3281667414131532
  0.4104408926756218  0.5535922140641465  0.2629977006550080
  0.7463523627726988  0.0213704102184851  0.3541619552109365
  0.4182537441261415  0.5385046432263978  0.1846519157184584
  0.0494209316206330  0.6914696185038738  0.0759880482589397
  0.9981430154469110  0.5432281080354597  0.2368459582416274
  0.5203885524185762  0.4615646179635275  0.1400402556912201
  0.9916909205981553  0.7859530677484799  0.2078939597518150
  0.1710331003424821  0.9540682454911997  0.3129027977042270
  0.5594263714176981  0.8447193736012076  0.1517909902546994
  0.2208221691848959  0.0579085904667484  0.2789670363451264
  0.3460151768186625  0.7272721329695643  0.3527727875634706
  0.2926382437456581  0.4980746014450381  0.3859461521839647
  0.4752887915383398  0.3548028413819062  0.3879646187186447
  0.1569461923502249  0.2712956815988209  0.3990102011775173
  0.5917405461051040  0.2629735721625485  0.3773278876916536
  0.7287895356910710  0.1043578294894032  0.4115358164015561
  0.9020973277466435  0.1347509065832824  0.3672824750104666
  0.8361991815878851  0.7623154541537140  0.3889849405056892
  0.8802051101416889  0.5409656361647146  0.3645372682940097
  0.8717501242682822  0.4083009895467645  0.3719686446445527
  0.7786766634775353  0.3929232002848864  0.3165122101750777
  0.0087223941582489  0.5378613461506442  0.3827249911263153
  0.0001527937199528  0.4133474107005194  0.3668197687345383
  0.5420970684084133  0.8634568625555353  0.3539158837049017
  0.0845696534716463  0.7623652795713263  0.3577926620816229
  0.1518202063214065  0.8788667184409856  0.3705649377365692
  0.0365414087172137  0.9815193746279058  0.3512000509837469
  0.4276056770340133  0.8222459090538395  0.3706401860296157
  0.5207602965077557  0.9922514332788541  0.3448756212374061
  0.6603595939054138  0.4455170928118836  0.0615928429391244
  0.7775209360674222  0.4204176032007834  0.0418891366415586
  0.6879314508128740  0.2039012672390429  0.0520282996195601
  0.1288268251277913  0.2878385492085048  0.0519910983786569
  0.1815016883518834  0.4957365068253147  0.0534900314431341
  0.4366644495006548  0.8516999183033529  0.0197294205531320
  0.2070862273353499  0.6745342069947965  0.0459770685131449
  0.2654653382555469  0.9499362858610070  0.0495105310100087
  0.9058235880539097  0.5802787670792621  0.0393701877881083
  0.9108327986316568  0.4595597413372164  0.0586918669488148
  0.8230707856240768  0.0096994249461989  0.0575102305444083
  0.7826771387901273  0.1230961759621071  0.0340143961546479
  0.1689182224689955  0.1624307860200201  0.0700270891448682
  0.0251084146495870  0.0298232458416737  0.0467623304679751
  0.1299708611198074  0.9671126771012765  0.0574010304537818
  0.9594344832301418  0.2796145796033279  0.0582719328127807
  0.9457430498329372  0.3694174115789482  0.1146371097325580
  0.6140856061435989  0.1037511708892163  0.0697590395595644
  0.3539166945219105  0.3825427089264719  0.1146736845340936
  0.2181046974074568  0.6712944448001733  0.0932354776026522
  0.3137201462978492  0.7171202685131131  0.3095032072059048
  0.3565378302608945  0.7282297655390951  0.1047207572499002
  0.2916025962784869  0.8541056517172547  0.2968157697853961
  0.4480554684688177  0.5720269010541472  0.2230093164591434
  0.3981095558532016  0.1044707270159169  0.2890491908758887
  0.6293335948327456  0.1869677498383228  0.2310928494917079
  0.9166044449849031  0.0405515014147580  0.2762655826888928
  0.0735917595632164  0.7739948850641712  0.3102972177057888
  0.8199911043406504  0.7364415547687281  0.3452859875314789
  0.8158795549637718  0.5318687614228866  0.1460186581317370
  0.4138185905090200  0.8370971384270109  0.0642913262857148
  0.5338803675334868  0.3913102673544287  0.1567087449361733
  0.4686613885847225  0.3527717572297816  0.3404259458123394
  0.6557969244418690  0.6774614335989431  0.1779453219394344
  0.4669104743137449  0.7143879059300130  0.2064036892831787
  0.7737133028509274  0.3987721729167450  0.1592675411169636
  0.8556725061347636  0.7784504696226205  0.1326000256053887
  0.8577662425074492  0.9230406492922164  0.2490624352368833
  0.8696983308803757  0.5373392177896584  0.3167619037356141
  0.6209217407308655  0.1306154361298819  0.3082469531008178
  0.7756497743106540  0.9974429952004243  0.1838166734675797
  0.5962210044650856  0.5622496288299087  0.2266057400740332
  0.6185908387354365  0.5691949400974241  0.3186503616022131
  0.9617404624437782  0.0788772639704389  0.1945728230685706
  0.3297373091451744  0.1478523109261981  0.1246296512333522
  0.2899868118601552  0.9148551154894966  0.2141761372201891
  0.7455385286583028  0.8811089359383333  0.1242727935709140
  0.7680222543610701  0.6954633490148222  0.2365764896234674
  0.9488010362058270  0.8453428193153698  0.1933463513437241
  0.7302928480681964  0.0943930902365468  0.3640117888711113
  0.1594129596072416  0.8806800062237715  0.3228756609439965
  0.0745901024416607  0.0068928323534378  0.0803148603996735
  0.4696295642522408  0.3241765912482454  0.2256617530078775
  0.0496968865078815  0.2601480612654581  0.2950615975740039
  0.4792150234768336  0.1779011805854975  0.2249142210483608
  0.1993110041328072  0.3270616077549400  0.2191972550591320
  0.0932924049695836  0.6581119831446132  0.2624379150142639
  0.1329636340614665  0.1350580844800903  0.1087140340990158
  0.0437459502941855  0.4970748995505327  0.2116075152986609
  0.3841954448956872  0.8180282883361532  0.1773428093190074
  0.4734413055615997  0.9811957708536324  0.3070959617212650
  0.6362468738098683  0.8762784831180297  0.2540754133937340
  0.2643016839978743  0.2778449504576086  0.1436711511659884
  0.6508277990501169  0.0544419382545203  0.0972096829495341
  0.5831479945021009  0.0098970537116079  0.2588292216364885
  0.1542028325236117  0.4661271599907561  0.0942217360918930
  0.5435465968565983  0.5251156608532177  0.1162957375076424
  0.4649301667805921  0.0123883117233474  0.1180799188556330
  0.8102300757675156  0.2612245299996297  0.1386122316803114
  0.6890979316681297  0.2611852675094762  0.0837999753204975
  0.5665354237368514  0.2545257064354292  0.3325085978737441
  0.4731599701896400  0.8464934421432244  0.3362083659083738
  0.0659474745739850  0.1739681573655631  0.2209467147012894
  0.1583753214897475  0.0155486042822302  0.2860588739383359
  0.8461463574798010  0.1216398131936071  0.1488225848913136
  0.9943326043464532  0.5619920234783522  0.2828515791489261
  0.2958889364641371  0.9187829581515558  0.0887383920797219
  0.8547059755163284  0.1443171234145366  0.3293332352540737
  0.2630280760909790  0.5278549211939074  0.3437628911286565
  0.0325673084733791  0.9566570700039323  0.1598695056435309
  0.1590675726315751  0.9679107843118193  0.2019266071079633
  0.2639271451482103  0.1130107821552157  0.2599214670140287
  0.0385681176795771  0.5368943598088045  0.1240941378270530
  0.7925689922260278  0.0756659377261568  0.0720408943273225
  0.3591411074098277  0.3546259375819775  0.2845723005660173
  0.0816393388103451  0.6782849953391498  0.1191037177150019
  0.1840158294818366  0.1057809408048946  0.1891378311366839
  0.2763876769532269  0.4469260615193152  0.2407064010108819
  0.1500193739193066  0.3156018180845446  0.0946264937702181
  0.5403466017271730  0.7746071770037101  0.2761748455313000
  0.2543020944830667  0.2535905649689867  0.2901659537395664
  0.7201199285730985  0.3993785670566098  0.0704452711124801
  0.8706185114948195  0.6586134994899242  0.1821832060763637
  0.4963764370548308  0.8757597143288051  0.1342140915211475
  0.3778471241745812  0.5912701179315679  0.2995250816432907
  0.6507054286707649  0.4236106843844599  0.2084683157171048
  0.8532848672190851  0.3994806997092325  0.3246287583322095
  0.7635974848134542  0.8208926829869505  0.2802369938894462
  0.6285461498115162  0.8248499009932705  0.1678584764725394
  0.6097528804627094  0.3165367702842307  0.2569609007865198
  0.4724251769009161  0.1470852414927968  0.1383106554329667
  0.5472424375871752  0.2655339738360937  0.1054267764202017
  0.4787412713170527  0.6607632479971554  0.1216622370984219
  0.0314009314364731  0.4794438559696629  0.3537820177716458
  0.9123350182265786  0.2690742651101089  0.3278412204086356
  0.0392798919807606  0.0488864793288723  0.3283637587726641
  0.3371344472952459  0.0118225960844949  0.1568426729173118
  0.3600762135401218  0.4947842161645210  0.1714285854050322
  0.1628968322453802  0.2894371167742534  0.3528747939883520
  0.1558022557024708  0.4303024035550141  0.3279603784995564
  0.6798590078035416  0.5771994354952861  0.1207156503625001
  0.2349726813132891  0.5512085933273411  0.1442386362946176
  0.1792255634196208  0.5543607489132124  0.2266793302580712
  0.0083974887012469  0.7148261794729777  0.1933354752723667
  0.7525728920983977  0.6214591451849416  0.3156170601894004
  0.9391374275502854  0.2954455555351954  0.1035815167703853
  0.6494887018627384  0.0676256492789286  0.1888528460039651
  0.0845805277225686  0.3805595929951195  0.2513451040335123
  0.9098597823564386  0.5321078909251963  0.0764395615167133
  0.0544638048668247  0.2408476951606746  0.1422747992248314
  0.7320787041263288  0.5844453616487766  0.0630131504185618
  0.5685997128949906  0.4807810620521494  0.0598021617033322
  0.3220496297722261  0.4039758373221094  0.0545729251729042
  0.4530770417004185  0.3503127113650682  0.1023400257265949
  0.4735750988803932  0.6080578914408812  0.3285938677700859
  0.5606932957017834  0.6211911383032723  0.3638327254886529
  0.5735071696515840  0.4729141027193506  0.3320138051884389
  0.2048167058744208  0.7155704328545882  0.3030094074756748
  0.3451328750029974  0.6932913288552913  0.3720579178296036
  0.2259562027629892  0.6278745461456149  0.3397040715162408
  0.2813223952417219  0.4543498622590319  0.3896270439889318
  0.5207119439842219  0.4006064393906099  0.2927172400009469
  0.4587698829563983  0.3915073324992525  0.4015161398860799
  0.1458298886854283  0.2284927766378193  0.4052166696675097
  0.5788314089470367  0.6944259427015558  0.3127269269262572
  0.5685573798256240  0.2924502223146802  0.3935114210406649
  0.3988698975877316  0.1885622082310689  0.3284025580604599
  0.7036843226199062  0.1386917623121524  0.4213627807428414
  0.9031939838889470  0.1716290884950536  0.3843142886677698
  0.8952073486983628  0.6842115963383842  0.3109259132639738
  0.8092788358720029  0.7944147967754166  0.3997105855942653
  0.9231949874794202  0.5477955752853224  0.3740435459195173
  0.7555760453226806  0.3559167469939666  0.3241503336115027
  0.8632306688723149  0.4509979973858327  0.3812123323997152
  0.0237193418274000  0.5376103413891510  0.4095368167040125
  0.9541848979072325  0.4118705114212507  0.3703773460554514
  0.9649331429904688  0.7615862986391070  0.3106323025614856
  0.0849683887959094  0.7194722974227262  0.3670189126508079
  0.1328164057141777  0.8400812062203790  0.3798883651601758
  0.9848790222881558  0.1190664820042405  0.3623751991525995
  0.0707609730871049  0.9691019650793385  0.3682156029896534
  0.5485040962871610  0.9084650371258215  0.3574877854199704
  0.3956200257012529  0.7902934746430118  0.3648247303988001
  0.3608175156119088  0.9038577613659888  0.3348861694280622
  0.7273432208919870  0.9890963693401672  0.3700728567156422
  0.5514953460710381  0.0252639941295618  0.3408094277068741
  0.9239701540843752  0.3011334417797548  0.3911711433521651
  0.8201360626643683  0.4247968755113303  0.0515674217281010
  0.6723519469656933  0.4900030480726106  0.0600245515929646
  0.7267412877921211  0.1832518331858991  0.0430724484210424
  0.3125595742359794  0.1057898365818732  0.0649499691545047
  0.1406987980428515  0.2435537167077330  0.0494098109417644
  0.2257227557986879  0.4882261447098425  0.0490451211282790
  0.2537253492562954  0.8212013149623262  0.0982315953850483
  0.4782224068854145  0.2761552148023435  0.0560829970726331
  0.4557004336706027  0.8184049181493280  0.0046687068821542
  0.1667746309280054  0.6613334887442748  0.0359556436642968
  0.4143401523255815  0.9745892171220001  0.0655240567610804
  0.0141497540775283  0.7201423651949094  0.0766496900177061
  0.8877704555649578  0.8003928086554714  0.0716990825822867
  0.7033871954960275  0.9305040174354571  0.0746036196416155
  0.5236296469835682  0.7368790408521600  0.0869663438111132
  0.2209458286714233  0.9608552581530122  0.0517156702592394
  0.9314715477550808  0.6176265813181080  0.0407464934801245
  0.9358755235572086  0.4526727683658918  0.0353430675312237
  0.5971970152960347  0.9635685982073724  0.0941792114399688
  0.7992332695535319  0.9715913316484240  0.0641691254624982
  0.7813765979726116  0.1034521453334991  0.0084497288693233
  0.2149083353011604  0.1570739702689845  0.0706612490446266
  0.9826152062998399  0.0393452291559303  0.0547374067652696
  0.0034952707554365  0.2833826638815323  0.0516030610128315
  0.9331242614842845  0.3997682999601639  0.0946367346560939
  0.1149494911841104  0.9364500834076280  0.0386884616595750
  0.6368361879267336  0.1421242339835713  0.0618480268977257
  0.5694239179155723  0.6363859685156241  0.4543095377210196
  0.5600554725200116  0.4592114121595903  0.4969828360518811
  0.3466927480703872  0.6590319730109894  0.4537014160445403
  0.3298349428079844  0.4443853224241131  0.5015087945274855
  0.4821272425315111  0.5330816504955453  0.4510242049171670
  0.3616076601138130  0.5267598668152969  0.4351359534151376
  0.5397422485957004  0.4427850743509136  0.4606974184413019
  0.4383021694784354  0.5010126217649394  0.3929773954326221
  0.4077802085705549  0.5562978326948654  0.4938038446611535
  0.5293357268585895  0.6214661911110144  0.4249723139004055
  0.3174216688516258  0.6257491820705061  0.4254199845118141
  0.3063459450603983  0.4458411791242546  0.4647926280521525
 
  0.00000000E+00  0.00000000E+00  0.00000000E+00
  0.00000000E+00  0.00000000E+00  0.00000000E+00
  0.00000000E+00  0.00000000E+00  0.00000000E+00
  0.00000000E+00  0.00000000E+00  0.00000000E+00
  0.00000000E+00  0.00000000E+00  0.00000000E+00
  0.00000000E+00  0.00000000E+00  0.00000000E+00
  0.00000000E+00  0.00000000E+00  0.00000000E+00
  0.00000000E+00  0.00000000E+00  0.00000000E+00
  0.00000000E+00  0.00000000E+00  0.00000000E+00
  0.00000000E+00  0.00000000E+00  0.00000000E+00
  0.00000000E+00  0.00000000E+00  0.00000000E+00
  0.00000000E+00  0.00000000E+00  0.00000000E+00
  0.00000000E+00  0.00000000E+00  0.00000000E+00
  0.00000000E+00  0.00000000E+00  0.00000000E+00
  0.00000000E+00  0.00000000E+00  0.00000000E+00
  0.00000000E+00  0.00000000E+00  0.00000000E+00
  0.00000000E+00  0.00000000E+00  0.00000000E+00
  0.00000000E+00  0.00000000E+00  0.00000000E+00
  0.00000000E+00  0.00000000E+00  0.00000000E+00
  0.00000000E+00  0.00000000E+00  0.00000000E+00
  0.00000000E+00  0.00000000E+00  0.00000000E+00
  0.00000000E+00  0.00000000E+00  0.00000000E+00
  0.00000000E+00  0.00000000E+00  0.00000000E+00
  0.00000000E+00  0.00000000E+00  0.00000000E+00
  0.00000000E+00  0.00000000E+00  0.00000000E+00
  0.00000000E+00  0.00000000E+00  0.00000000E+00
  0.00000000E+00  0.00000000E+00  0.00000000E+00
  0.00000000E+00  0.00000000E+00  0.00000000E+00
  0.00000000E+00  0.00000000E+00  0.00000000E+00
  0.00000000E+00  0.00000000E+00  0.00000000E+00
  0.00000000E+00  0.00000000E+00  0.00000000E+00
  0.00000000E+00  0.00000000E+00  0.00000000E+00
  0.00000000E+00  0.00000000E+00  0.00000000E+00
  0.00000000E+00  0.00000000E+00  0.00000000E+00
  0.00000000E+00  0.00000000E+00  0.00000000E+00
  0.00000000E+00  0.00000000E+00  0.00000000E+00
  0.00000000E+00  0.00000000E+00  0.00000000E+00
  0.00000000E+00  0.00000000E+00  0.00000000E+00
  0.00000000E+00  0.00000000E+00  0.00000000E+00
  0.00000000E+00  0.00000000E+00  0.00000000E+00
  0.00000000E+00  0.00000000E+00  0.00000000E+00
  0.00000000E+00  0.00000000E+00  0.00000000E+00
  0.00000000E+00  0.00000000E+00  0.00000000E+00
  0.00000000E+00  0.00000000E+00  0.00000000E+00
  0.00000000E+00  0.00000000E+00  0.00000000E+00
  0.00000000E+00  0.00000000E+00  0.00000000E+00
  0.00000000E+00  0.00000000E+00  0.00000000E+00
  0.00000000E+00  0.00000000E+00  0.00000000E+00
  0.00000000E+00  0.00000000E+00  0.00000000E+00
  0.00000000E+00  0.00000000E+00  0.00000000E+00
  0.00000000E+00  0.00000000E+00  0.00000000E+00
  0.00000000E+00  0.00000000E+00  0.00000000E+00
  0.00000000E+00  0.00000000E+00  0.00000000E+00
  0.00000000E+00  0.00000000E+00  0.00000000E+00
  0.00000000E+00  0.00000000E+00  0.00000000E+00
  0.00000000E+00  0.00000000E+00  0.00000000E+00
  0.00000000E+00  0.00000000E+00  0.00000000E+00
  0.00000000E+00  0.00000000E+00  0.00000000E+00
  0.00000000E+00  0.00000000E+00  0.00000000E+00
  0.00000000E+00  0.00000000E+00  0.00000000E+00
  0.00000000E+00  0.00000000E+00  0.00000000E+00
  0.00000000E+00  0.00000000E+00  0.00000000E+00
  0.00000000E+00  0.00000000E+00  0.00000000E+00
  0.00000000E+00  0.00000000E+00  0.00000000E+00
  0.00000000E+00  0.00000000E+00  0.00000000E+00
  0.00000000E+00  0.00000000E+00  0.00000000E+00
  0.00000000E+00  0.00000000E+00  0.00000000E+00
  0.00000000E+00  0.00000000E+00  0.00000000E+00
  0.00000000E+00  0.00000000E+00  0.00000000E+00
  0.00000000E+00  0.00000000E+00  0.00000000E+00
  0.00000000E+00  0.00000000E+00  0.00000000E+00
  0.00000000E+00  0.00000000E+00  0.00000000E+00
  0.00000000E+00  0.00000000E+00  0.00000000E+00
  0.00000000E+00  0.00000000E+00  0.00000000E+00
  0.00000000E+00  0.00000000E+00  0.00000000E+00
  0.00000000E+00  0.00000000E+00  0.00000000E+00
  0.00000000E+00  0.00000000E+00  0.00000000E+00
  0.00000000E+00  0.00000000E+00  0.00000000E+00
  0.00000000E+00  0.00000000E+00  0.00000000E+00
  0.00000000E+00  0.00000000E+00  0.00000000E+00
  0.00000000E+00  0.00000000E+00  0.00000000E+00
  0.00000000E+00  0.00000000E+00  0.00000000E+00
  0.00000000E+00  0.00000000E+00  0.00000000E+00
  0.00000000E+00  0.00000000E+00  0.00000000E+00
  0.00000000E+00  0.00000000E+00  0.00000000E+00
  0.00000000E+00  0.00000000E+00  0.00000000E+00
  0.00000000E+00  0.00000000E+00  0.00000000E+00
  0.00000000E+00  0.00000000E+00  0.00000000E+00
  0.00000000E+00  0.00000000E+00  0.00000000E+00
  0.00000000E+00  0.00000000E+00  0.00000000E+00