 O Si  H Mo  S 
1.0
       21.3948993683         0.0000000000         0.0000000000
        0.0000000000        21.3948993683         0.0000000000
        0.0000000000         0.0000000000        34.1699981689
    O   Si    H   Mo    S
  236  102   68    2    6
Cartesian
6.07369424 15.22730891 3.43149245 F F F
13.09634214 13.37202635 6.90680124 F F F
3.21837592 8.36640932 3.13272827 F F F
8.16220014 9.41163240 4.79935346 F F F
14.46510583 18.15955708 4.60138662 F F F
2.21498964 9.98351872 12.01026774 T T T
0.08847705 16.22707559 10.32189298 T T T
14.07840600 3.05605663 6.71013687 F F F
4.58590646 19.61980105 7.02231368 F F F
18.09310711 11.37450530 3.50389196 F F F
8.83243197 16.46965214 7.13884140 T T T
11.08570147 11.83114669 7.70657705 T T T
2.48292488 10.98216766 7.29392623 T T T
13.07215347 10.62987050 11.49034849 T T T
9.31194088 13.86334648 7.50709034 T T T
2.66230969 8.92633329 9.54286188 T T T
11.13440654 15.70208414 8.09994500 T T T
6.80393100 21.03373868 6.81086395 F F F
6.91787647 18.34172955 6.56222985 F F F
17.44265546 18.72532291 9.35080196 T T T
20.83954074 5.30406323 10.50767277 T T T
21.12588336 0.91571616 9.96694873 T T T
0.06089651 0.44516012 5.95769629 F F F
2.08669490 6.33783821 4.26397522 F F F
12.64373432 15.62200319 10.27848907 T T T
9.13802236 12.47926594 11.56993727 T T T
17.13417984 6.99552491 5.65213669 F F F
1.35753158 4.38049122 8.92958379 T T T
11.22086877 14.73800109 3.01005305 F F F
3.28879282 13.14466335 8.53010679 T T T
11.81496777 3.79194300 7.92762061 T T T
15.36199289 8.83916840 6.56715355 F F F
10.93906343 20.33960384 4.26242199 F F F
5.43524191 18.48032341 3.70134173 F F F
13.42814308 16.00897846 5.96455739 F F F
15.86020695 19.36696269 2.67992663 F F F
14.86891038 18.20870720 9.55474801 T T T
15.43436123 14.59990076 6.89056372 F F F
4.77825276 6.09631883 6.16220803 F F F
2.43667991 1.30780433 3.47034920 F F F
12.08906177 3.88035857 10.97759432 T T T
16.67643793 14.36315968 11.92053115 T T T
4.38251534 6.04519974 8.77064148 T T T
13.17862797 11.48638680 4.44916997 F F F
7.05087395 9.94489758 7.14904420 T T T
6.75800722 7.17000134 4.73011464 F F F
6.47745353 20.80432511 4.18592491 F F F
10.69303036 12.55975114 4.35674190 F F F
18.61766753 9.93554309 10.34017228 T T T
12.67631403 1.34932432 10.02104221 T T T
9.85347149 2.97884240 6.32736378 F F F
10.25684247 16.94943395 10.33833213 T T T
10.97417704 8.80056002 10.88974066 T T T
2.12987326 18.02400594 10.40942180 T T T
6.66896838 8.91205129 9.50757011 T T T
16.71345164 2.76430955 11.61774044 T T T
10.51920302 15.04008140 5.54521960 F F F
21.17188238 19.16340196 5.72664393 F F F
18.95439854 15.71196211 11.49447585 T T T
13.10562840 12.30586708 9.32232088 T T T
16.94604437 17.56337306 4.30248955 F F F
18.94957942 7.23023708 10.62998521 T T T
17.56880939 9.81639658 5.60363036 F F F
13.64132545 5.62413806 7.76754233 T T T
19.20948769 17.47195654 5.51796155 F F F
18.71914439 2.03440308 10.07208474 T T T
9.49659369 19.51570359 10.81053681 T T T
2.28954548 1.27825569 10.51026344 T T T
0.73210570 9.10259633 7.60991521 T T T
12.27148546 17.92373418 9.03327477 T T T
0.07252443 2.81393470 7.22646543 T T T
4.64875229 6.12327603 3.52721462 F F F
9.37004570 18.60916171 5.63932133 F F F
8.82149428 0.15536404 5.21045640 F F F
2.67003124 2.73889093 7.31882579 T T T
2.16155951 20.11111226 6.04989473 F F F
6.45885805 19.33110562 8.89897335 T T T
7.74796033 16.64279595 4.79762686 F F F
12.62498581 0.90896076 7.38685736 T T T
6.79711550 1.85099921 5.16154019 F F F
8.74323946 7.53784618 8.54516353 T T T
11.04687310 4.45742235 4.50043042 F F F
14.89446355 7.01899689 2.12239123 F F F
17.93319897 15.15086365 5.16690228 F F F
17.91326194 14.32614853 7.71220239 T T T
13.27653927 5.52551774 3.63672110 F F F
8.15351770 16.45742773 2.26421186 F F F
9.00640660 0.75754616 10.38924329 T T T
6.72952867 11.72190875 10.76147192 T T T
5.25252523 2.67364685 7.29573583 T T T
15.85460739 11.73443539 4.91188265 F F F
13.47606515 1.25420141 4.89008141 F F F
17.41582450 20.59307855 7.43821965 T T T
3.57783895 7.76712584 11.76027823 T T T
5.19239087 14.86101030 10.75692501 T T T
0.96439189 15.45284576 5.18620197 F F F
14.31120277 13.88389052 4.62594453 F F F
15.13525222 0.49300731 6.84476568 F F F
13.87517174 18.45472178 7.07746777 F F F
8.79776024 7.57200782 2.97746931 F F F
11.11315091 5.62123053 2.07145589 F F F
19.51502261 18.89555153 7.74668000 T T T
11.29314146 7.19634643 4.19277583 F F F
8.65461379 3.39064492 3.99800940 F F F
16.52423986 16.44100780 8.44899559 T T T
13.55632846 20.96976522 2.85247251 F F F
4.61205293 10.08224681 10.99266278 T T T
1.13671540 14.53747033 7.61998970 T T T
18.97623822 20.78776108 9.58044595 T T T
3.95084179 0.66751020 6.14738245 F F F
7.19910158 1.88097409 8.91094706 T T T
0.93779503 13.14767673 9.87169067 T T T
19.63292705 2.35719608 5.42347591 F F F
9.54288983 3.06868911 8.95392428 T T T
3.88096654 2.98335992 4.95436904 F F F
2.81308603 21.16604180 8.35235869 T T T
6.85723903 18.90370028 11.48684233 T T T
6.34916039 2.93462521 2.72851519 F F F
18.48988513 5.80674029 3.69646870 F F F
19.07674972 16.40572587 3.11460070 F F F
2.46614263 15.35569706 9.77605583 T T T
10.18668285 17.96395893 3.20978391 F F F
9.31650750 0.27126297 2.53363955 F F F
4.68078843 17.97701606 10.41435670 T T T
17.27834903 1.29203549 5.72060921 F F F
20.19959447 14.35702070 6.35016708 F F F
6.79596971 6.21803941 9.86027808 T T T
19.61516175 1.09777697 7.76394146 T T T
17.11947638 12.09474039 10.57332651 T T T
7.65027539 14.14377074 10.02784680 T T T
10.63579014 6.14242050 11.33486651 T T T
14.14703789 2.50171085 11.83438831 T T T
19.70771833 12.39701326 9.97232763 T T T
20.80028134 11.80054614 3.37010532 F F F
10.94779624 21.03293273 9.07633855 T T T
8.64722508 14.30315731 3.81314230 F F F
8.13592902 3.04181926 11.21642277 T T T
10.18938635 7.89097352 6.40671427 F F F
0.48615483 10.85089111 5.55513217 F F F
1.77715798 10.60716557 3.22473398 F F F
4.44433780 12.41071566 6.23986756 F F F
20.97977837 5.43910205 4.50834653 F F F
4.17751966 10.47316001 4.41272645 F F F
7.86404947 19.15444726 2.62517784 F F F
6.60217537 11.49828347 5.01466832 F F F
15.88554078 8.63492862 3.96287750 F F F
3.37385740 14.96556430 4.03264052 F F F
12.03608849 13.15805970 11.51234577 T T T
13.12540347 6.26957868 10.31567497 T T T
9.70657904 5.34682410 7.44295240 T T T
5.62180693 3.82426703 9.61130589 T T T
14.68267883 12.70121045 11.40814359 T T T
11.38753821 7.04278322 8.55814234 T T T
8.48860556 7.76423552 11.14945639 T T T
6.40627116 4.52879568 4.80378326 F F F
12.82591827 8.34170546 6.05387595 F F F
11.48171562 10.99143097 2.39192509 F F F
5.08384283 8.33452907 7.52422145 T T T
13.71666763 8.21786608 8.51321906 T T T
0.87215539 20.58156827 3.78342215 F F F
18.26358186 12.51803692 5.83354523 F F F
14.77660502 12.22791067 2.51466905 F F F
13.46218293 10.64840668 7.31920003 T T T
1.52855451 3.74075377 3.92224934 F F F
19.52062090 5.70768957 12.81126048 T T T
17.85737858 2.47833117 3.45845620 F F F
10.71043541 1.71389817 4.19193213 F F F
13.46943902 20.32919154 8.98052855 T T T
4.90296472 12.87547647 3.61957446 F F F
1.42776548 4.89397240 6.33762412 F F F
16.31272933 20.12415155 5.16255599 F F F
17.57604635 4.12279995 5.53967878 F F F
4.67667389 5.45845821 11.35083722 T T T
0.54454683 2.38647516 12.09299811 T T T
15.50099993 1.31622144 3.20483221 F F F
6.52363937 8.86790392 2.68764518 F F F
16.58021760 16.91845720 11.08684241 T T T
1.58226886 12.99268973 4.36299759 F F F
18.32787285 4.62407170 10.76505038 T T T
2.69267289 7.39860322 7.31299321 T T T
0.83628900 7.01619457 9.16988375 T T T
14.08450673 3.46960972 9.28870428 T T T
4.91167394 10.87724640 8.36889458 T T T
15.83646972 14.05524772 9.41483449 T T T
15.87250532 5.35875584 3.98767701 F F F
0.16925267 10.64933314 10.50251893 T T T
4.56994529 12.55623405 12.08798480 T T T
6.87649827 16.75877733 9.77356496 T T T
2.01152249 5.65672033 11.13139705 T T T
8.69938156 11.87112659 9.00434969 T T T
15.80947936 0.36283328 12.16007143 T T T
8.91253078 11.50746644 6.32903132 F F F
1.14961704 14.96400213 2.58221742 F F F
21.32689234 11.58074784 8.00624960 T T T
11.09986934 9.87585379 4.79250713 F F F
21.14230585 16.80757294 7.10399566 T T T
3.64936180 20.39949654 10.67640037 T T T
11.93233534 18.05587152 5.23320624 F F F
4.71662095 1.24452309 9.52772418 T T T
7.29948109 15.63919846 12.18454838 T T T
6.06840265 10.62527264 13.14541725 T T T
10.18092133 7.86386329 13.25656047 T T T
3.14133927 5.87547803 13.52805948 T T T
12.78253987 5.61161461 12.87915661 T T T
15.59130062 2.23251791 14.04859686 T T T
19.25608862 2.85579112 12.54647950 T T T
17.41931482 16.35778849 13.54925735 T T T
18.89517406 11.61518048 12.43341567 T T T
18.57539731 8.75438884 12.72053508 T T T
16.53862707 8.46040182 10.87290741 T T T
0.20007791 11.49237786 12.97142786 T T T
21.29970687 8.81774445 12.48714459 T T T
11.66661199 18.51024426 12.03914598 T T T
2.04777313 16.22435934 12.27916284 T T T
3.32949005 18.80363639 12.68009862 T T T
0.72355452 21.03268024 11.99630419 T T T
9.24503055 17.59371729 12.70770393 T T T
11.14329110 21.23923904 11.79177463 T T T
14.09547885 9.51880637 2.12801887 F F F
16.59853125 9.00368206 1.40743073 F F F
14.69665924 4.36324590 1.78418425 F F F
2.75958959 6.18532069 1.66232790 F F F
3.88061681 10.50667766 1.69097014 F F F
9.33833506 18.26270832 0.67478933 F F F
4.37205746 14.57570571 1.57563044 F F F
5.70143837 20.32535308 1.68972750 F F F
19.17573604 12.56008143 1.42163257 F F F
19.49087476 9.89091113 1.95838660 F F F
17.58648926 0.19809584 1.97135637 F F F
16.70516261 2.61640664 1.15670839 F F F
3.64241878 3.45947033 2.33865493 F F F
0.59207445 0.62665170 1.55532043 F F F
2.84189105 20.67842495 1.88758245 F F F
20.37377377 5.98085328 1.90816664 F F F
20.23083519 7.87506750 3.87197414 F F F
13.10728365 2.19258137 2.37168598 F F F
7.56549838 8.25001986 3.81488825 F F F
4.67404084 14.41562287 3.17343586 F F F
6.76048564 15.36687577 10.63661667 T T T
7.65812510 15.59213972 3.57787984 F F F
6.26168944 18.26184243 10.12461302 T T T
9.50765253 12.25920367 7.64313058 T T T
8.48375202 2.20447612 9.85872103 T T T
13.42471779 3.99416568 7.87883576 T T T
19.62659678 0.87428567 9.37852539 T T T
1.64577048 16.48585273 10.68976717 T T T
17.38855360 15.83761743 12.00448558 T T T
17.44611389 11.35282502 5.01168253 F F F
8.87154089 17.93260216 2.20027734 F F F
11.35922033 8.36576851 5.35453393 F F F
10.04477338 7.64909898 11.64290578 T T T
14.01886016 14.48925623 6.12064885 F F F
9.95558916 15.28193999 7.07071410 F F F
16.51688941 8.52806836 5.45305630 F F F
18.26160779 16.63726270 4.52991864 F F F
18.33879524 19.75644890 8.49252119 T T T
18.60304696 11.50718207 10.81722225 T T T
13.25251766 2.80414376 10.52503861 T T T
16.55849779 21.32033508 6.26860882 F F F
12.70031779 12.03846170 7.77875635 T T T
13.23456617 12.13367460 10.92291020 T T T
20.55735410 1.65979488 6.57177378 F F F
7.05242081 3.16480073 4.21257984 F F F
6.19656636 19.59129189 7.31508235 T T T
15.91234623 18.82447756 4.23613646 F F F
16.42468606 14.85325687 8.13542466 T T T
20.27783399 18.09641507 6.55705869 F F F
15.57061247 1.95598408 12.43235252 T T T
3.43462970 18.82891283 11.04476336 T T T
1.65525313 0.11772213 2.69019792 F F F
9.99211572 6.92772511 7.71071663 T T T
0.93005753 5.58337006 9.92988809 T T T
10.21418457 3.79908719 7.67564227 T T T
4.24955643 6.95787040 7.42499949 T T T
1.95848131 14.03657190 8.93161132 T T T
2.87797798 2.86214434 3.65606559 F F F
0.90828345 10.63334934 7.10133116 T T T
8.21615981 17.52533279 6.06427733 F F F
10.12892616 20.99517301 10.50369104 T T T
13.61972424 18.73080259 8.66990676 T T T
5.65366550 5.97298890 4.79508659 F F F
13.88581103 1.13366137 3.31301256 F F F
12.45659225 0.20375312 8.84433709 T T T
3.28668327 9.97697039 3.12052544 F F F
11.60710313 11.23697117 3.99839408 F F F
9.94896686 0.27121931 4.04108108 F F F
17.28379046 5.57726169 4.76213243 F F F
14.71379075 5.58541363 2.87264288 F F F
12.14205417 5.47409132 11.38152710 T T T
10.17389096 18.12419480 11.49369885 T T T
1.38410493 3.71805395 7.45535687 T T T
3.38009362 0.33491196 9.77445906 T T T
18.05496355 2.59194970 5.07693708 F F F
21.24268855 11.95885513 9.58523320 T T T
6.33834511 19.66272165 3.03592920 F F F
18.25539229 3.05400573 11.23714304 T T T
5.49497840 11.26210733 11.74298163 T T T
0.70844075 20.44689959 5.40318334 F F F
3.39188126 20.72656636 6.89789225 F F F
5.66359257 2.39062956 8.84851027 T T T
0.82875515 11.56144971 4.13554660 F F F
16.91503192 1.60332204 2.45700448 F F F
7.64326861 7.61677814 9.75222859 T T T
1.77317016 14.59282957 4.06510155 F F F
3.94372119 2.27282954 6.42123740 F F F
5.89572175 9.55949403 8.19526314 T T T
3.18714477 6.75365038 3.13759596 F F F
11.56774554 16.51904711 9.45435444 T T T
5.37440872 5.39128710 9.88564811 T T T
15.39021258 8.54558754 2.40707348 F F F
18.58774414 14.07908187 6.24336404 F F F
10.61425970 18.74940828 4.59923435 F F F
8.05425657 12.56984208 10.35148915 T T T
13.85216394 9.06912012 7.10460158 T T T
18.14522343 8.56775942 11.11413202 T T T
16.35364780 17.56891779 9.61411143 T T T
13.42764319 17.63719516 5.74039363 F F F
12.99711607 6.77360526 8.76545912 T T T
10.09726717 3.14508017 4.72269243 F F F
11.66981538 5.68479910 3.60031195 F F F
10.26173427 14.13497162 4.18995374 F F F
0.61614631 10.19854062 12.00395604 T T T
19.43238864 5.76129855 11.15842190 T T T
0.81232956 1.06186092 11.18312084 T T T
7.20465012 0.27221459 5.35478139 F F F
7.68238390 10.58605086 5.81578173 F F F
3.32704765 6.17326334 11.93560266 T T T
3.26622116 9.18740075 11.04810659 T T T
14.53567735 12.33626614 4.14626265 F F F
5.02299402 11.80843347 4.82974190 F F F
3.80394328 11.85409582 7.63746298 T T T
0.13443436 15.29746088 6.59141105 F F F
16.07571025 13.30945310 10.83598628 T T T
20.03545765 6.29907488 3.48535910 F F F
13.86155350 1.43290452 6.44202081 F F F
1.74596572 8.12551481 8.42638119 T T T
19.42666028 11.43241502 2.58832036 F F F
1.15119491 5.10882342 4.75298362 F F F
15.65467599 12.46613867 2.17331588 F F F
12.08889726 10.30930055 2.04120607 F F F
7.01060202 9.28253076 1.95535740 F F F
9.68286987 7.56618254 3.40219644 F F F
10.06359968 12.74629385 11.40409465 T T T
12.04479197 13.28888610 12.47677885 T T T
12.28780592 10.06262986 11.31135190 T T T
4.46583699 15.29926406 10.27177512 T T T
6.60706080 15.85431919 12.83087584 T T T
4.75076921 13.38250240 11.57498215 T T T
6.05575423 9.65881447 13.21394883 T T T
11.12394578 8.60757036 9.94296568 T T T
9.87536346 8.69237542 13.66005841 T T T
2.81717922 4.99370250 13.76962830 T T T
12.34698067 14.78897863 10.70590692 T T T
12.36920420 6.26206117 13.47067063 T T T
8.06127929 4.00615162 11.14218133 T T T
15.09085617 2.99908326 14.36921779 T T T
19.31132927 3.66275655 13.10110395 T T T
19.24448526 14.83590857 11.18671051 T T T
16.61521388 16.77269907 13.89600087 T T T
19.82986038 11.71672237 12.73701394 T T T
16.05115942 7.65132363 11.08871616 T T T
18.41050300 9.66659149 13.04477520 T T T
0.59570508 11.52824003 13.85700130 T T T
20.31732037 8.81540376 12.63274658 T T T
20.72103056 16.49835641 10.86853667 T T T
2.07225781 15.30287171 12.58396682 T T T
2.95406522 17.96464883 13.01301607 T T T
20.99342594 2.54109331 12.33073388 T T T
1.41704697 20.81421074 12.63991166 T T T
11.78262270 19.47475833 12.17748615 T T T
8.55705382 16.91430631 12.51667253 T T T
7.74585556 19.31093267 11.43512668 T T T
15.45410059 21.12256393 12.79918290 T T T
11.79638249 0.55452610 11.65027861 T T T
20.08025922 6.36353420 13.25760937 T T T
17.51501614 9.08669350 1.72519761 F F F
14.33943010 10.47349157 2.07885366 F F F
15.52639751 3.91654083 1.48368990 F F F
6.69948540 2.19517822 2.20161621 F F F
3.01709022 5.24183525 1.56181353 F F F
4.69437830 10.05260077 1.41872341 F F F
5.41451041 17.58395026 3.33231886 F F F
10.20633104 5.92796927 1.90039094 F F F
9.79428400 17.57765060 0.16404800 F F F
3.44019164 14.54795022 1.30332274 F F F
8.86591073 20.84587993 2.25170479 F F F
0.37076931 15.54683061 2.60328851 F F F
18.55193680 16.09412210 2.36091189 F F F
15.02178815 19.87814844 2.53473859 F F F
11.29515506 15.70753322 2.98616827 F F F
4.74379781 20.54825402 1.74821769 F F F
19.94239607 13.11132743 1.19854596 F F F
20.07152131 9.73801806 1.19459949 F F F
12.73567624 20.59095018 3.22793439 F F F
17.09163289 20.76863510 2.19751584 F F F
16.64824885 2.19284932 0.28584510 F F F
4.62568774 3.33774337 2.35096647 F F F
21.06517578 0.77103377 1.82316154 F F F
21.30539315 6.04263397 1.63648128 F F F
19.94922878 8.54080796 3.21103724 F F F
2.51774200 20.04275072 1.22904031 F F F
13.59155556 3.01740871 2.11422512 F F F
13.23975766 13.20493990 16.95241155 T T T
12.48949205 9.37447906 17.85527343 T T T
7.46166170 14.08179685 15.72483600 T T T
6.66536201 10.20762349 16.61410298 T T T
11.46017306 11.24097796 16.01655018 T T T
8.76285386 11.62822103 15.38671583 T T T
12.27875175 9.15143019 16.52987666 T T T
10.42890807 10.97046610 14.03738183 T T T
9.78628062 11.89691312 17.37893224 T T T
13.01621782 12.89785047 15.64583277 T T T
8.00212303 13.63670782 14.55927463 T T T
7.26428523 9.88133029 15.43804858 T T T
