 O Si  H Mo  S                          
   1.00000000000000     
    21.3948993682999991    0.0000000000000000    0.0000000000000000
     0.0000000000000000   21.3948993682999991    0.0000000000000000
     0.0000000000000000    0.0000000000000000   34.1699981689000012
   O    Si   H    Mo   S 
   236   102    68     3     8
Selective dynamics
Direct
  0.2822362628042754  0.7103636886025697  0.1017600512745460   F   F   F
  0.6119069868801574  0.6230308714482931  0.2013649086564300   F   F   F
  0.1549963023868699  0.3904747528814880  0.0931054286514268   F   F   F
  0.3794037845326272  0.4391088188674175  0.1454837433096117   F   F   F
  0.6769066326756104  0.8476354636854779  0.1366337786101752   F   F   F
  0.1024416826804213  0.4673660468923870  0.3543087920573029   F   F   F
  0.0011534945689391  0.7643431555338722  0.2949427957623030   F   F   F
  0.6584451196223213  0.1431801193727651  0.1968518318748096   F   F   F
  0.2136237970985846  0.9142271561514548  0.2057623253211531   F   F   F
  0.8459569063357435  0.5327578068652485  0.1030539758837747   F   F   F
  0.4124631467921276  0.7677650457151657  0.2097175634570903   F   F   F
  0.5211039767156578  0.5524976420268572  0.2303751475009648   F   F   F
  0.1144711630780932  0.5126788852556672  0.2170809832035232   F   F   F
  0.6145630277653069  0.4958319573622632  0.3358653559045948   F   F   F
  0.4378313545899530  0.6475384764272789  0.2233568223877924   F   F   F
  0.1249260842778384  0.4190298746405787  0.2823512174548526   F   F   F
  0.5210656473119712  0.7365697699229159  0.2376578639687708   F   F   F
  0.3174102969480543  0.9803131053250240  0.1990824770923183   F   F   F
  0.3230778371612857  0.8545824401485973  0.1934809281453411   F   F   F
  0.8132896619180627  0.8761967566222637  0.2738184257842065   F   F   F
  0.9773266990186116  0.2483124041011493  0.3123273629649432   F   F   F
  0.9876297820149560  0.0425702705352364  0.2920632523382878   F   F   F
  0.0030417540627710  0.0211569261564932  0.1774889041372703   F   F   F
  0.0984215199320246  0.2981974147503408  0.1281137583693592   F   F   F
  0.5923067015934720  0.7314948700922344  0.3006129114647536   F   F   F
  0.4227755439641854  0.6040341815715422  0.3401001093358715   F   F   F
  0.8019567223363637  0.3263479221083259  0.1654212418443919   F   F   F
  0.0644905970854239  0.2040091315016568  0.2645083685457408   F   F   F
  0.5212418498604166  0.6878937249118167  0.0888134607834488   F   F   F
  0.1521812249419696  0.6125358809536792  0.2543682258929607   F   F   F
  0.5521058354743502  0.1764855262277081  0.2319305441785460   F   F   F
  0.7192934426257693  0.4112721739820628  0.1932128431108282   F   F   F
  0.5109888077214890  0.9490573922020005  0.1251652916545041   F   F   F
  0.2553705689041408  0.8617765201562833  0.1112905195998621   F   F   F
  0.6279325259913833  0.7466455552990610  0.1752756571995704   F   F   F
  0.7405453632757073  0.9049962576210291  0.0797317619482385   F   F   F
  0.6940189500090597  0.8496867639518371  0.2811772100244312   F   F   F
  0.7214214020634486  0.6795141752247176  0.2021994182810971   F   F   F
  0.2229337951691122  0.2819048892358182  0.1845228231715339   F   F   F
  0.1103988302667034  0.0625133494884622  0.1035660524358661   F   F   F
  0.5644418113242580  0.1797354498515062  0.3217256633463563   F   F   F
  0.7824811658915678  0.6706573462829510  0.3499426650979771   F   F   F
  0.2049073238834751  0.2849130794987786  0.2607674573031247   F   F   F
  0.6161713984407058  0.5366116559411864  0.1299934675669476   F   F   F
  0.3324452885251716  0.4662584461792534  0.2159475973427547   F   F   F
  0.3166985478306188  0.3327226956137750  0.1441647790005192   F   F   F
  0.3041977166174306  0.9716648547654856  0.1215961378425732   F   F   F
  0.4989030358667819  0.5843085425283476  0.1276954371735641   F   F   F
  0.8685664023768993  0.4634398209882704  0.3027449629120653   F   F   F
  0.5932875590371296  0.0626859825134787  0.2933669120302653   F   F   F
  0.4604995698571628  0.1398265834965358  0.1848966678535646   F   F   F
  0.4792458662456056  0.7912664007912156  0.3044819181542451   F   F   F
  0.5130079908598830  0.4072239006454055  0.3216214339516981   F   F   F
  0.0978683829798612  0.8428379606806615  0.3045062978735160   F   F   F
  0.3085828445717596  0.4117343329119265  0.2815348900425576   F   F   F
  0.7813412168610228  0.1319475799789487  0.3418637907263218   F   F   F
  0.4913296192550334  0.6992386068252543  0.1638097919824659   F   F   F
  0.9864248469065870  0.8962984423685043  0.1685197046986460   F   F   F
  0.8871787354407132  0.7218579171041952  0.3212156807183604   F   F   F
  0.6252912873124075  0.5699444241225180  0.2706590704736271   F   F   F
  0.7931804416446013  0.8210031129887909  0.1263178117291375   F   F   F
  0.8875004889945259  0.3375525702179871  0.3112432858774170   F   F   F
  0.8212230561492859  0.4583710328059141  0.1638947646405668   F   F   F
  0.6365076431458760  0.2627628697732050  0.2275259603730575   F   F   F
  0.8958331364006469  0.8144841868045489  0.1647392152837241   F   F   F
  0.8747874193231695  0.0929455625606153  0.2982510720134428   F   F   F
  0.4441072200588607  0.9122325847745429  0.3160844971119374   F   F   F
  0.1066760453558828  0.0600723978002335  0.3083998671784869   F   F   F
  0.0331852647378597  0.4248700761746562  0.2270318349405116   F   F   F
  0.5715364712019664  0.8410245314789648  0.2671891078152271   F   F   F
  0.0031586499646750  0.1331716895951658  0.2132947218047931   F   F   F
  0.2183995597527399  0.2850967961961288  0.1070360023054064   F   F   F
  0.4378920681441656  0.8679188617466309  0.1659365215103250   F   F   F
  0.4125534008912553  0.0058625441596192  0.1535210579916821   F   F   F
  0.1241012462571973  0.1257250594403203  0.2168526305308802   F   F   F
  0.0990698416024074  0.9385294466268093  0.1794747346284709   F   F   F
  0.3008946640753436  0.9037260449993454  0.2611408768245909   F   F   F
  0.3618080508262267  0.7759889857246947  0.1413043652821599   F   F   F
  0.5909833443937842  0.0423195971835355  0.2161819407912162   F   F   F
  0.3174695355748938  0.0845087929532653  0.1521561255456234   F   F   F
  0.4082489954465274  0.3524815483336781  0.2508608734283300   F   F   F
  0.5162018476942336  0.2062759282943958  0.1297778015566138   F   F   F
  0.6963559525938763  0.3279028613122179  0.0618134728526840   F   F   F
  0.8410462917171984  0.7059755936499243  0.1503373557322689   F   F   F
  0.8376303773672689  0.6710316015847226  0.2257962473817372   F   F   F
  0.6213763585482184  0.2580888158581445  0.1066462197141362   F   F   F
  0.3803630871892025  0.7659179342864277  0.0674028192125888   F   F   F
  0.4221615991224610  0.0361004152291926  0.3046612419836379   F   F   F
  0.3160510345752030  0.5465061076509201  0.3177406776446432   F   F   F
  0.2448602453434390  0.1223315564848519  0.2156464067537769   F   F   F
  0.7411271102522505  0.5481982463720669  0.1443004802299512   F   F   F
  0.6311752631383172  0.0596996195465707  0.1432409483180308   F   F   F
  0.8155675454847184  0.9627620584843157  0.2180245601059667   F   F   F
  0.1668620195584083  0.3639820164445950  0.3472704652634917   F   F   F
  0.2376692482054565  0.6974403752831506  0.3191603776425112   F   F   F
  0.0460365155899325  0.7194860297907368  0.1526525221805386   F   F   F
  0.6693741249746523  0.6485258258424480  0.1351644771527418   F   F   F
  0.7084760026452557  0.0236973125170366  0.2005436982505131   F   F   F
  0.6462781032390907  0.8602583948662428  0.2088017430292695   F   F   F
  0.4083254930672240  0.3514731997765637  0.0913327731197100   F   F   F
  0.5223599025881782  0.2634389944989479  0.0595571992888182   F   F   F
  0.9125070701233255  0.8816228462430331  0.2288093460267646   F   F   F
  0.5271519162109755  0.3343010246484823  0.1229292903610357   F   F   F
  0.4033654802422433  0.1566495269472910  0.1171107236581150   F   F   F
  0.7702953095288265  0.7698895421750080  0.2453110845610951   F   F   F
  0.6338286668534252  0.9805010931244666  0.0837773062833378   F   F   F
  0.2149932316283767  0.4729108162501774  0.3252503673994980   F   F   F
  0.0550289965412887  0.6794941570994624  0.2243490433267823   F   F   F
  0.8872002371945555  0.9712001170790572  0.2812011419484222   F   F   F
  0.1832489346108233  0.0291010305813231  0.1822484585023290   F   F   F
  0.3357243574151454  0.0893090183711891  0.2633679893617753   F   F   F
  0.0402165907669385  0.6173914231755901  0.2909655603798882   F   F   F
  0.9187168214736730  0.1101466529550734  0.1594381974970673   F   F   F
  0.4462394752455907  0.1426340958146000  0.2616752285981718   F   F   F
  0.1806357227580051  0.1376155082278530  0.1474452902732679   F   F   F
  0.1324222618449085  0.9855426464502344  0.2470381727953566   F   F   F
  0.3186947499197998  0.8874446934237810  0.3370626446069807   F   F   F
  0.2942136745400674  0.1373800220241534  0.0817607979118264   F   F   F
  0.8667522523888280  0.2709601736798319  0.1092490489565350   F   F   F
  0.8907706482206095  0.7654392773346572  0.0915668398858926   F   F   F
  0.1145539810451481  0.7179830240428871  0.2889021105577072   F   F   F
  0.4749912854010248  0.8378928454379704  0.0947132747288251   F   F   F
  0.4344622634963216  0.0109569735315418  0.0749758199746751   F   F   F
  0.2169558734235295  0.8419286886840212  0.3058657455269227   F   F   F
  0.8088115488073768  0.0598275162513175  0.1675527918661643   F   F   F
  0.9452904573281558  0.6705736774930244  0.1875304404646698   F   F   F
  0.3204329533908847  0.2855966219797921  0.2879242944063023   F   F   F
  0.9153154048453942  0.0542711073299245  0.2289500791817858   F   F   F
  0.7981206730308656  0.5641265587777582  0.3097045545447799   F   F   F
  0.3458614312896700  0.6609308264577862  0.2908944260918744   F   F   F
  0.4957737704733205  0.2836598936294621  0.3311656275847099   F   F   F
  0.6615916474244230  0.1167593222771757  0.3464529074001348   F   F   F
  0.9189518373574757  0.5801072798222222  0.2942855841455199   F   F   F
  0.9722592594038062  0.5458533808878272  0.1006879542452950   F   F   F
  0.5123698627425739  0.9832431077900594  0.2656327989051732   F   F   F
  0.4024729574845551  0.6657153687243635  0.1135257965681262   F   F   F
  0.3838996903341183  0.1456340982168598  0.3286477210780703   F   F   F
  0.4770458443946737  0.3675752856448113  0.1880321750568470   F   F   F
  0.0212003552964575  0.5057967457489454  0.1661047384952852   F   F   F
  0.0832339473481483  0.4895448039335264  0.0993949282564799   F   F   F
  0.2059812971062556  0.5797846751407363  0.1871443162747823   F   F   F
  0.9815549142904842  0.2570451050258029  0.1372498316129693   F   F   F
  0.1967414596733690  0.4875852501134048  0.1341326295564613   F   F   F
  0.3664174846861172  0.8921685031139006  0.0760341390061328   F   F   F
  0.3087682149259763  0.5377315175650921  0.1537356344291609   F   F   F
  0.7408175172579874  0.4022468490098916  0.1168558759182332   F   F   F
  0.1552047168018262  0.6961191378634481  0.1155555098792007   F   F   F
  0.5614113169543273  0.6118742775357049  0.3286090589226234   F   F   F
  0.6127704169908981  0.2921844598553420  0.3025143234384515   F   F   F
  0.4535584631659617  0.2498412630357336  0.2185394476199463   F   F   F
  0.2568527701506085  0.1770421234198309  0.2838426133601502   F   F   F
  0.6859252049373410  0.5962603541434603  0.3351624516347655   F   F   F
  0.5315949262544635  0.3292189468868969  0.2516803828912515   F   F   F
  0.3958539188732431  0.3591596168999800  0.3276442634091623   F   F   F
  0.2989848932751613  0.2093238768088668  0.1437112090527748   F   F   F
  0.6006184213107986  0.3865651356550543  0.1768045474022983   F   F   F
  0.5374568545361598  0.5108738337022700  0.0702119046403311   F   F   F
  0.2387095659531084  0.3895277799763335  0.2208413011938291   F   F   F
  0.6404203478633121  0.3833672222381566  0.2494177408167388   F   F   F
  0.0389982294663795  0.9626188215339226  0.1130711544008918   F   F   F
  0.8540291167515193  0.5843438272596586  0.1718778792786182   F   F   F
  0.6917265509915609  0.5709069926304835  0.0736235883798813   F   F   F
  0.6284250935647719  0.4949232161714292  0.2115074795027212   F   F   F
  0.0711272427583225  0.1768909247619277  0.1182353076552474   F   F   F
  0.9084122729463644  0.2678944156215977  0.3765052826946587   F   F   F
  0.8362830215185326  0.1144815724412780  0.1012430471808017   F   F   F
  0.5000691205472023  0.0786712363922675  0.1229341359852327   F   F   F
  0.6310648159392258  0.9506787956205613  0.2630208776706766   F   F   F
  0.2305476475949177  0.5998250799799365  0.1110760913671740   F   F   F
  0.0696153064145832  0.2293913322819279  0.1891456591575036   F   F   F
  0.7626005539206488  0.9400586354136138  0.1521277318930174   F   F   F
  0.8216529220721540  0.1918182482065518  0.1617915883867340   F   F   F
  0.2235201293504900  0.2583218078865599  0.3356032839402090   F   F   F
  0.0249622347607996  0.1117286164508258  0.3543614501589190   F   F   F
  0.7250067881136246  0.0617626343329292  0.0936562136439321   F   F   F
  0.3039623304053833  0.4153287153470870  0.0846202729358794   F   F   F
  0.7787686146867401  0.7878390217709921  0.3228330559061021   F   F   F
  0.0734954023750589  0.6035339302237617  0.1292420395777398   F   F   F
  0.8589455440562617  0.2158159331116423  0.3150130087043124   F   F   F
  0.1263773209809784  0.3466894473849962  0.2173315119198946   F   F   F
  0.0417899358063778  0.3275624806001787  0.2728550343577396   F   F   F
  0.6580163291954690  0.1627095454518539  0.2723171515113449   F   F   F
  0.2286543044947393  0.5066972513630006  0.2485437587425992   F   F   F
  0.7425128150861866  0.6598070386562327  0.2769924858191644   F   F   F
  0.7436235774887408  0.2505492265642673  0.1159014441392401   F   F   F
  0.0070183156207122  0.4999249717612457  0.3103423242951067   F   F   F
  0.2172562524365063  0.5869038952351673  0.3591083893578428   F   F   F
  0.3190057983032375  0.7849042759346645  0.2882478814424374   F   F   F
  0.0982755598237190  0.2622440414551477  0.3290080983329631   F   F   F
  0.4108421353127056  0.5567990393266768  0.2686190849694796   F   F   F
  0.7413725609241695  0.0182751250519217  0.3563744531153006   F   F   F
  0.4192753858439744  0.5361918775773802  0.1899832903558476   F   F   F
  0.0460456958964954  0.6926984817553716  0.0769345932910852   F   F   F
  0.9954978384077720  0.5414523590948903  0.2371686531566866   F   F   F
  0.5201021028092541  0.4596596908236066  0.1407948113715349   F   F   F
  0.9908114061040791  0.7857600020637037  0.2079544601163690   F   F   F
  0.1681097000740763  0.9534903573877926  0.3163579680686226   F   F   F
  0.5577995577421220  0.8419645697925020  0.1531485203180480   F   F   F
  0.2208854517499645  0.0552571490387308  0.2810899307598973   F   F   F
  0.3416744120540613  0.7331115156694139  0.3560780868305500   F   F   F
  0.2871235053537902  0.4952883064803189  0.3871721145802809   F   F   F
  0.4671213808228316  0.3638432380980490  0.3900662532194659   F   F   F
  0.1510561333062981  0.2751276960031248  0.3991103853884823   F   F   F
  0.5964373976710604  0.2585724952758000  0.3774625258593574   F   F   F
  0.7261865350765433  0.1042240958007667  0.4119199421170308   F   F   F
  0.9001275321759366  0.1360442295683626  0.3694331836920099   F   F   F
  0.8418212469490172  0.7628503320523095  0.3882651368687462   F   F   F
  0.8796017963853657  0.5394927669300245  0.3652054034407684   F   F   F
  0.8667388414031194  0.4082268095972310  0.3723686659200709   F   F   F
  0.7729021211289790  0.3916672432917565  0.3176661097916735   F   F   F
  0.0065816293481049  0.5360034259029263  0.3829077765519386   F   F   F
  0.9945152782472420  0.4116892768627594  0.3669623485794631   F   F   F
  0.5429379699285590  0.8645316588439300  0.3548966325618963   F   F   F
  0.0796266812577642  0.7604433561948980  0.3595780225999547   F   F   F
  0.1508551915299918  0.8745507264639514  0.3725019123855802   F   F   F
  0.0331869864114438  0.9830615716004019  0.3516199298884572   F   F   F
  0.4286088397465235  0.8248034009980643  0.3725333053710074   F   F   F
  0.5214038699628816  0.9919586464564958  0.3452331846211507   F   F   F
  0.6596318507975028  0.4449706304443595  0.0620740707422556   F   F   F
  0.7770058004695954  0.4207720437156368  0.0425066369619600   F   F   F
  0.6870996697414995  0.2037670898433177  0.0521560480036385   F   F   F
  0.1295798599581417  0.2874928765907327  0.0522807561388063   F   F   F
  0.1822364500623479  0.4972765592286024  0.0552301233421630   F   F   F
  0.4371184532802133  0.8480044641447719  0.0201670856659391   F   F   F
  0.2106150992467306  0.6701405251346699  0.0464212378458413   F   F   F
  0.2625160838697909  0.9444034503363881  0.0503313356003900   F   F   F
  0.9027093761302396  0.5779373036444611  0.0392103152356000   F   F   F
  0.9083230992255764  0.4574746710782662  0.0594794965594261   F   F   F
  0.8216952053277922  0.0085566556962320  0.0575385814324960   F   F   F
  0.7818076581856843  0.1223050491498654  0.0339401718831382   F   F   F
  0.1688232452780269  0.1623543458140446  0.0712920049869155   F   F   F
  0.0248370057004124  0.0292130658696479  0.0475133035574231   F   F   F
  0.1298449488235605  0.9669919139664103  0.0573364032235730   F   F   F
  0.9588101707595484  0.2794159275003096  0.0599012671046708   F   F   F
  0.9456453986476419  0.3692321145087476  0.1162387252217911   F   F   F
  0.6127285071281889  0.1025665394296595  0.0694068802230419   F   F   F
  0.3525702260928796  0.3843491379761872  0.1167644289899741   F   F   F
  0.2187601884462538  0.6692880897545308  0.0939390904025430   F   F   F
  0.3105863311708532  0.7199118353246092  0.3127398344263597   F   F   F
  0.3567405752226094  0.7262322878943053  0.1060025171730246   F   F   F
  0.2906841096338511  0.8555488029652878  0.2978364149225712   F   F   F
  0.4476757329878751  0.5728001858961917  0.2276849210193461   F   F   F
  0.3975201080843433  0.1040193093584278  0.2895178132336298   F   F   F
  0.6272045753355968  0.1866022237427387  0.2309516206037898   F   F   F
  0.9169709993974706  0.0408070370398832  0.2759235772601656   F   F   F
  0.0711586271397451  0.7723193256173531  0.3118957281776673   F   F   F
  0.8217111990405428  0.7361311172558800  0.3454720246254013   F   F   F
  0.8156456439747544  0.5305693671774918  0.1471221325631760   F   F   F
  0.4139805885224632  0.8347983326468622  0.0648227566428972   F   F   F
  0.5316477008489855  0.3888525868888237  0.1569450976964717   F   F   F
  0.4680881528979342  0.3536464475961765  0.3432037722488204   F   F   F
  0.6555879998115870  0.6756573934321608  0.1791161477878305   F   F   F
  0.4661191150999429  0.7135166927257259  0.2083355898883710   F   F   F
  0.7724312245603713  0.3977413775940732  0.1599015388693559   F   F   F
  0.8540226741148231  0.7768133446688736  0.1334831625903021   F   F   F
  0.8573983398462204  0.9231852562202292  0.2493545114037374   F   F   F
  0.8671462521177631  0.5363455012003442  0.3176829975525806   F   F   F
  0.6195662572370324  0.1306579029663553  0.3083135962950934   F   F   F
  0.7748920568105362  0.9964887956520840  0.1839903904680469   F   F   F
  0.5969000101429103  0.5601910142080015  0.2272481445393453   F   F   F
  0.6218065195185787  0.5656107858887367  0.3178148844698256   F   F   F
  0.9607765571606279  0.0788583012396415  0.1942117782213160   F   F   F
  0.3286961679524794  0.1465214288377936  0.1248982415907776   F   F   F
  0.2888668510462225  0.9135512600596059  0.2146114415896818   F   F   F
  0.7438665303757688  0.8792699062459235  0.1251614219110024   F   F   F
  0.7677570840706451  0.6948702118356564  0.2380806117025926   F   F   F
  0.9475073268468108  0.8448581775067083  0.1934916692498732   F   F   F
  0.7279380536859676  0.0923564348837189  0.3645980743664126   F   F   F
  0.1578469478069451  0.8793207326214727  0.3249274061415690   F   F   F
  0.0747268246703285  0.0063213229596215  0.0808509830530966   F   F   F
  0.4667018481479772  0.3236784133646395  0.2265815051605458   F   F   F
  0.0464596119031953  0.2600587247860133  0.2945129298241653   F   F   F
  0.4773580678044524  0.1774489482593467  0.2245946310366378   F   F   F
  0.1989259242006796  0.3251271732272656  0.2204245319057989   F   F   F
  0.0906313174240054  0.6566093841189229  0.2639129782519376   F   F   F
  0.1329543484199363  0.1343784035693787  0.1097820983558293   F   F   F
  0.0409948524953876  0.4960994140193904  0.2113187733231001   F   F   F
  0.3837854477802907  0.8172337688927556  0.1783409995438845   F   F   F
  0.4740227639317425  0.9813135853758581  0.3074369145147458   F   F   F
  0.6359448922669486  0.8754342101710577  0.2552297523671143   F   F   F
  0.2645395927808494  0.2772228708628930  0.1445953404817857   F   F   F
  0.6494903067327158  0.0534478383920458  0.0970312747296305   F   F   F
  0.5829832546779912  0.0095069433315800  0.2588712037224852   F   F   F
  0.1556973847388505  0.4657021841545301  0.0956534216391773   F   F   F
  0.5429152277694271  0.5232527944908512  0.1170927802541541   F   F   F
  0.4646311568625947  0.0111026046268492  0.1189126592964271   F   F   F
  0.8089847294710069  0.2601886309568755  0.1393333945493467   F   F   F
  0.6883764369388814  0.2610004736443159  0.0839338073855345   F   F   F
  0.5666490569861367  0.2541859421739971  0.3335400008333664   F   F   F
  0.4738674765012476  0.8474626567479220  0.3374398122149742   F   F   F
  0.0655161530277866  0.1734753148100623  0.2212062783709072   F   F   F
  0.1576360529289644  0.0141493161284245  0.2883793896197560   F   F   F
  0.8450036974925865  0.1205169974817153  0.1486690699917332   F   F   F
  0.9911623691259877  0.5601984931038970  0.2831157473924222   F   F   F
  0.2957154092235612  0.9161291133499674  0.0894157497260295   F   F   F
  0.8538507300947700  0.1434471023983832  0.3307774792844995   F   F   F
  0.2581670748043194  0.5259170174198076  0.3471487517993168   F   F   F
  0.0315863739171434  0.9557350229341495  0.1604431243664521   F   F   F
  0.1576817517698998  0.9661601405117466  0.2038959822236848   F   F   F
  0.2632371864423533  0.1105003211623341  0.2614052096491974   F   F   F
  0.0381474291347388  0.5363158318811116  0.1239174114954764   F   F   F
  0.7912717922845545  0.0746910628997810  0.0718766884134752   F   F   F
  0.3572609173755410  0.3527644807837333  0.2866587501642286   F   F   F
  0.0806840498611336  0.6780524164202362  0.1190505346982178   F   F   F
  0.1834037650879807  0.1040582848604430  0.1902961047489100   F   F   F
  0.2750271584096851  0.4452747024778745  0.2432943892998409   F   F   F
  0.1505749804107310  0.3152918645232035  0.0949785827822254   F   F   F
  0.5404993494109362  0.7737023440595863  0.2779098178036676   F   F   F
  0.2521262954501537  0.2510530624632352  0.2917893541524421   F   F   F
  0.7196242937992281  0.3991013449743477  0.0708564780517165   F   F   F
  0.8701000928106524  0.6573810536720401  0.1832742814580541   F   F   F
  0.4957344934336234  0.8746830554919711  0.1351502933811659   F   F   F
  0.3717946406262058  0.5919564080308390  0.3034298279752861   F   F   F
  0.6479453060660987  0.4212465741069167  0.2075899532599053   F   F   F
  0.8477657793089861  0.3988185285330985  0.3252749702347231   F   F   F
  0.7639520519032033  0.8206485543914184  0.2808146683876558   F   F   F
  0.6272096073401414  0.8228089480014162  0.1690894199956148   F   F   F
  0.6067565456720345  0.3159941640947608  0.2572076424951177   F   F   F
  0.4713746154925573  0.1458767062520394  0.1378497030435781   F   F   F
  0.5462144336018682  0.2645991541811981  0.1048023822520747   F   F   F
  0.4782947111936124  0.6580233191306704  0.1237285814385558   F   F   F
  0.0276267407219351  0.4769162582488988  0.3539766700052027   F   F   F
  0.9093230900846905  0.2693536485013297  0.3280188652328562   F   F   F
  0.0376019112946864  0.0496668776197922  0.3279767309273112   F   F   F
  0.3368071041220873  0.0107171934621775  0.1569248780847587   F   F   F
  0.3600646665221845  0.4943156446965276  0.1757558151634058   F   F   F
  0.1588762857239203  0.2890443097958197  0.3524957901504280   F   F   F
  0.1524958057105152  0.4303561398554976  0.3266686616920680   F   F   F
  0.6798233624998105  0.5760188249713423  0.1212776718531074   F   F   F
  0.2350317618996201  0.5506998674138615  0.1467861822592624   F   F   F
  0.1763113457928824  0.5527029678612436  0.2278047146638542   F   F   F
  0.0078453843952246  0.7143821995933592  0.1940272654529025   F   F   F
  0.7517318700127120  0.6228219415445295  0.3181247377066754   F   F   F
  0.9390186283320645  0.2952262637261427  0.1052992531586270   F   F   F
  0.6488107838679511  0.0673964518466761  0.1887576712149368   F   F   F
  0.0822922891737790  0.3800285936029013  0.2502979985786382   F   F   F
  0.9088466557623889  0.5304689175880455  0.0765085066414528   F   F   F
  0.0549529293978708  0.2407435532718480  0.1430781595668904   F   F   F
  0.7323602945943577  0.5834326086426316  0.0636301091559659   F   F   F
  0.5670581508214241  0.4798724621278794  0.0601680789043684   F   F   F
  0.3091469162217635  0.3986586896699578  0.0583854972742586   F   F   F
  0.4504409658526569  0.3490981385927014  0.1026618100430667   F   F   F
  0.4664735159998514  0.6038304510759787  0.3310009546313779   F   F   F
  0.5579290671237302  0.6250363473364828  0.3561936886148445   F   F   F
  0.5773172125780235  0.4699247808696541  0.3311182092412537   F   F   F
  0.2018735390500268  0.7149301678969167  0.3049755457522920   F   F   F
  0.3346998675965622  0.7043800450305255  0.3780605256206400   F   F   F
  0.2221247840201244  0.6258692702167679  0.3438173616357716   F   F   F
  0.3020928559993976  0.4525486593227157  0.3856580267512513   F   F   F
  0.5219069958575631  0.3956533606707495  0.2944529323619491   F   F   F
  0.5043436762781965  0.3815788141300800  0.4036802606782501   F   F   F
  0.1387020650584176  0.2331739705005376  0.4065522418994050   F   F   F
  0.5801848607409639  0.6890099270761283  0.3085325976803901   F   F   F
  0.5897521435098128  0.2960799988005007  0.3930110430153277   F   F   F
  0.3926886817505562  0.1900650573477023  0.3272671452796629   F   F   F
  0.7021446010636581  0.1397761422176771  0.4211009885135226   F   F   F
  0.9025455135067517  0.1746075973360988  0.3849433126554871   F   F   F
  0.8934317550078461  0.6805750892657585  0.3096920602288264   F   F   F
  0.8187125624736495  0.7980830792969513  0.3986119130521359   F   F   F
  0.9228399881085139  0.5457994510163857  0.3745370238569734   F   F   F
  0.7515890644937926  0.3527029678021947  0.3232934914620742   F   F   F
  0.8591728415565569  0.4511839408388028  0.3814714047757946   F   F   F
  0.0223008781552210  0.5357979378839346  0.4095570584828749   F   F   F
  0.9484759358104924  0.4112807192015921  0.3706119015813840   F   F   F
  0.9627438919767641  0.7577310258959571  0.3101546600993359   F   F   F
  0.0790794557203540  0.7175190411756489  0.3687440167452394   F   F   F
  0.1303444270042391  0.8360205416023589  0.3809689470135851   F   F   F
  0.9811179070545393  0.1191531968919577  0.3620643152576974   F   F   F
  0.0649822155144690  0.9725402160796364  0.3707742063144721   F   F   F
  0.5491397587584785  0.9096601691224038  0.3582775254156374   F   F   F
  0.3940447135724696  0.7955665802123875  0.3669673040016690   F   F   F
  0.3603625689460941  0.9059779912859298  0.3351287716503251   F   F   F
  0.7198541784713939  0.9878703299946636  0.3725020205542009   F   F   F
  0.5516198697676771  0.0255416855633683  0.3415734717701682   F   F   F
  0.9334913689193485  0.2986287265007519  0.3903146365702881   F   F   F
  0.8197032175561318  0.4249174490825425  0.0521501393351471   F   F   F
  0.6714936527034041  0.4894681817836002  0.0604277741653689   F   F   F
  0.7258884735742299  0.1830081202240095  0.0432967589718274   F   F   F
  0.3109097654546744  0.1041482559654341  0.0653730340321772   F   F   F
  0.1407811344060264  0.2429873465190582  0.0499586918119377   F   F   F
  0.2274249012631557  0.4963929938563112  0.0524427009294968   F   F   F
  0.2529789014517263  0.8194419585285360  0.1012621755443064   F   F   F
  0.4794945029083308  0.2754190387860334  0.0539556790668456   F   F   F
  0.4531531602195713  0.8134296451344838  0.0048669328718489   F   F   F
  0.1729063957943708  0.6520921692215467  0.0354267220930282   F   F   F
  0.4135778241010470  0.9725479947171607  0.0666781149568791   F   F   F
  0.0098301986031260  0.7200190410244787  0.0789321890373600   F   F   F
  0.8853889287990455  0.7982984059852427  0.0722666892897124   F   F   F
  0.7014401917382145  0.9291142563791581  0.0756068323652954   F   F   F
  0.5249304380205402  0.7332147744260737  0.0888341856438331   F   F   F
  0.2183070212187204  0.9562794354454951  0.0532855275402113   F   F   F
  0.9285032693343496  0.6152207386901409  0.0396973372837621   F   F   F
  0.9332433031252023  0.4493131276034177  0.0362401575767493   F   F   F
  0.5953563357026255  0.9628342431967738  0.0946327367671032   F   F   F
  0.7979339627644180  0.9705766590000948  0.0644791736445427   F   F   F
  0.7796270438614741  0.1027712408237349  0.0083528359393767   F   F   F
  0.2147779373315331  0.1562361038319295  0.0715887022783335   F   F   F
  0.9824546547334023  0.0389735016812480  0.0556073568265063   F   F   F
  0.0027089748052589  0.2836770972387512  0.0529062679416512   F   F   F
  0.9318566944185775  0.3992309005101689  0.0963513108512473   F   F   F
  0.1143511622580533  0.9389249661420678  0.0372192675644882   F   F   F
  0.6352928669657558  0.1411431152461660  0.0617918925371228   F   F   F
  0.5136088012690507  0.6873566042743136  0.5366819475430020   T   T   T
  0.3364015664159794  0.6422916500752223  0.4617582425874431   T   T   T
  0.6136506672947846  0.4430554069605748  0.3990905669394493   T   T   T
  0.5298788754234565  0.4095770596952235  0.4989305859364777   T   T   T