 O Si  H Mo  S                          
   1.00000000000000     
    21.3948993682999991    0.0000000000000000    0.0000000000000000
     0.0000000000000000   21.3948993682999991    0.0000000000000000
     0.0000000000000000    0.0000000000000000   34.1699981689000012
   O    Si   H    Mo   S 
   236   102    68     3     8
Selective
Direct
0.2822362628042726 0.7103636886025669 0.1017600512745495  F  F  F
0.6119069868801580 0.6230308714482934 0.2013649086564266  F  F  F
0.1549963023868732 0.3904747528814854 0.0931054286514297  F  F  F
0.3794037845326280 0.4391088188674196 0.1454837433096106  F  F  F
0.6769066326756072 0.8476354636854797 0.1366337786101725  F  F  F
0.1024416826804203 0.4673660468923864 0.3543087920573051  F  F  F
0.0011534945689363 0.7643431555338751 0.2949427957623009  F  F  F
0.6584451196223181 0.1431801193727664 0.1968518318748068  F  F  F
0.2136237970985872 0.9142271561514557 0.2057623253211525  F  F  F
0.8459569063357418 0.5327578068652494 0.1030539758837717  F  F  F
0.4124631467921259 0.7677650457151638 0.2097175634570905  F  F  F
0.5211039767156587 0.5524976420268582 0.2303751475009633  F  F  F
0.1144711630780908 0.5126788852556685 0.2170809832035236  F  F  F
0.6145630277653036 0.4958319573622630 0.3358653559045972  F  F  F
0.4378313545899544 0.6475384764272760 0.2233568223877926  F  F  F
0.1249260842778373 0.4190298746405804 0.2823512174548535  F  F  F
0.5210656473119748 0.7365697699229167 0.2376578639687721  F  F  F
0.3174102969480512 0.9803131053250220 0.1990824770923160  F  F  F
0.3230778371612892 0.8545824401485950 0.1934809281453404  F  F  F
0.8132896619180613 0.8761967566222602 0.2738184257842077  F  F  F
0.9773266990186146 0.2483124041011470 0.3123273629649453  F  F  F
0.9876297820149582 0.0425702705352338 0.2920632523382895  F  F  F
0.0030417540627693 0.0211569261564966 0.1774889041372719  F  F  F
0.0984215199320280 0.2981974147503421 0.1281137583693596  F  F  F
0.5923067015934728 0.7314948700922331 0.3006129114647508  F  F  F
0.4227755439641838 0.6040341815715401 0.3401001093358741  F  F  F
0.8019567223363627 0.3263479221083257 0.1654212418443931  F  F  F
0.0644905970854253 0.2040091315016538 0.2645083685457375  F  F  F
0.5212418498604156 0.6878937249118168 0.0888134607834470  F  F  F
0.1521812249419709 0.6125358809536818 0.2543682258929617  F  F  F
0.5521058354743467 0.1764855262277100 0.2319305441785437  F  F  F
0.7192934426257664 0.4112721739820651 0.1932128431108251  F  F  F
0.5109888077214884 0.9490573922020035 0.1251652916545023  F  F  F
0.2553705689041431 0.8617765201562838 0.1112905195998617  F  F  F
0.6279325259913859 0.7466455552990604 0.1752756571995676  F  F  F
0.7405453632757052 0.9049962576210305 0.0797317619482403  F  F  F
0.6940189500090618 0.8496867639518341 0.2811772100244340  F  F  F
0.7214214020634520 0.6795141752247192 0.2021994182810974  F  F  F
0.2229337951691107 0.2819048892358193 0.1845228231715338  F  F  F
0.1103988302667061 0.0625133494884656 0.1035660524358681  F  F  F
0.5644418113242580 0.1797354498515066 0.3217256633463595  F  F  F
0.7824811658915695 0.6706573462829518 0.3499426650979758  F  F  F
0.2049073238834786 0.2849130794987813 0.2607674573031221  F  F  F
0.6161713984407060 0.5366116559411878 0.1299934675669485  F  F  F
0.3324452885251687 0.4662584461792515 0.2159475973427523  F  F  F
0.3166985478306175 0.3327226956137762 0.1441647790005171  F  F  F
0.3041977166174324 0.9716648547654838 0.1215961378425720  F  F  F
0.4989030358667811 0.5843085425283461 0.1276954371735607  F  F  F
0.8685664023768962 0.4634398209882724 0.3027449629120644  F  F  F
0.5932875590371307 0.0626859825134781 0.2933669120302678  F  F  F
0.4604995698571639 0.1398265834965325 0.1848966678535640  F  F  F
0.4792458662456059 0.7912664007912139 0.3044819181542424  F  F  F
0.5130079908598799 0.4072239006454084 0.3216214339516955  F  F  F
0.0978683829798646 0.8428379606806597 0.3045062978735130  F  F  F
0.3085828445717599 0.4117343329119245 0.2815348900425594  F  F  F
0.7813412168610202 0.1319475799789473 0.3418637907263251  F  F  F
0.4913296192550325 0.6992386068252520 0.1638097919824678  F  F  F
0.9864248469065852 0.8962984423685008 0.1685197046986428  F  F  F
0.8871787354407130 0.7218579171041971 0.3212156807183574  F  F  F
0.6252912873124097 0.5699444241225170 0.2706590704736239  F  F  F
0.7931804416446004 0.8210031129887911 0.1263178117291409  F  F  F
0.8875004889945244 0.3375525702179860 0.3112432858774160  F  F  F
0.8212230561492869 0.4583710328059122 0.1638947646405681  F  F  F
0.6365076431458783 0.2627628697732050 0.2275259603730592  F  F  F
0.8958331364006443 0.8144841868045474 0.1647392152837240  F  F  F
0.8747874193231713 0.0929455625606162 0.2982510720134453  F  F  F
0.4441072200588592 0.9122325847745425 0.3160844971119398  F  F  F
0.1066760453558849 0.0600723978002344 0.3083998671784873  F  F  F
0.0331852647378601 0.4248700761746562 0.2270318349405132  F  F  F
0.5715364712019629 0.8410245314789671 0.2671891078152244  F  F  F
0.0031586499646775 0.1331716895951635 0.2132947218047942  F  F  F
0.2183995597527413 0.2850967961961274 0.1070360023054055  F  F  F
0.4378920681441676 0.8679188617466321 0.1659365215103216  F  F  F
0.4125534008912524 0.0058625441596209 0.1535210579916848  F  F  F
0.1241012462572006 0.1257250594403169 0.2168526305308807  F  F  F
0.0990698416024099 0.9385294466268110 0.1794747346284725  F  F  F
0.3008946640753410 0.9037260449993465 0.2611408768245917  F  F  F
0.3618080508262295 0.7759889857246959 0.1413043652821596  F  F  F
0.5909833443937840 0.0423195971835340 0.2161819407912149  F  F  F
0.3174695355748939 0.0845087929532636 0.1521561255456206  F  F  F
0.4082489954465308 0.3524815483336773 0.2508608734283302  F  F  F
0.5162018476942372 0.2062759282943939 0.1297778015566139  F  F  F
0.6963559525938786 0.3279028613122165 0.0618134728526848  F  F  F
0.8410462917171975 0.7059755936499209 0.1503373557322711  F  F  F
0.8376303773672686 0.6710316015847193 0.2257962473817358  F  F  F
0.6213763585482155 0.2580888158581456 0.1066462197141328  F  F  F
0.3803630871891992 0.7659179342864257 0.0674028192125887  F  F  F
0.4221615991224578 0.0361004152291921 0.3046612419836390  F  F  F
0.3160510345752063 0.5465061076509180 0.3177406776446448  F  F  F
0.2448602453434406 0.1223315564848537 0.2156464067537782  F  F  F
0.7411271102522508 0.5481982463720668 0.1443004802299518  F  F  F
0.6311752631383191 0.0596996195465682 0.1432409483180318  F  F  F
0.8155675454847179 0.9627620584843178 0.2180245601059668  F  F  F
0.1668620195584100 0.3639820164445919 0.3472704652634942  F  F  F
0.2376692482054595 0.6974403752831512 0.3191603776425103  F  F  F
0.0460365155899310 0.7194860297907364 0.1526525221805381  F  F  F
0.6693741249746558 0.6485258258424473 0.1351644771527452  F  F  F
0.7084760026452562 0.0236973125170340 0.2005436982505108  F  F  F
0.6462781032390924 0.8602583948662444 0.2088017430292676  F  F  F
0.4083254930672222 0.3514731997765618 0.0913327731197093  F  F  F
0.5223599025881766 0.2634389944989458 0.0595571992888179  F  F  F
0.9125070701233279 0.8816228462430361 0.2288093460267632  F  F  F
0.5271519162109756 0.3343010246484815 0.1229292903610326  F  F  F
0.4033654802422398 0.1566495269472898 0.1171107236581180  F  F  F
0.7702953095288275 0.7698895421750098 0.2453110845610957  F  F  F
0.6338286668534286 0.9805010931244647 0.0837773062833384  F  F  F
0.2149932316283771 0.4729108162501761 0.3252503673994957  F  F  F
0.0550289965412878 0.6794941570994597 0.2243490433267807  F  F  F
0.8872002371945583 0.9712001170790551 0.2812011419484213  F  F  F
0.1832489346108260 0.0291010305813205 0.1822484585023320  F  F  F
0.3357243574151429 0.0893090183711858 0.2633679893617755  F  F  F
0.0402165907669385 0.6173914231755916 0.2909655603798856  F  F  F
0.9187168214736698 0.1101466529550730 0.1594381974970645  F  F  F
0.4462394752455939 0.1426340958145993 0.2616752285981750  F  F  F
0.1806357227580045 0.1376155082278524 0.1474452902732698  F  F  F
0.1324222618449067 0.9855426464502366 0.2470381727953556  F  F  F
0.3186947499198025 0.8874446934237777 0.3370626446069818  F  F  F
0.2942136745400684 0.1373800220241563 0.0817607979118252  F  F  F
0.8667522523888290 0.2709601736798352 0.1092490489565357  F  F  F
0.8907706482206101 0.7654392773346539 0.0915668398858900  F  F  F
0.1145539810451466 0.7179830240428874 0.2889021105577041  F  F  F
0.4749912854010218 0.8378928454379738 0.0947132747288225  F  F  F
0.4344622634963218 0.0109569735315423 0.0749758199746740  F  F  F
0.2169558734235277 0.8419286886840234 0.3058657455269229  F  F  F
0.8088115488073796 0.0598275162513175 0.1675527918661631  F  F  F
0.9452904573281528 0.6705736774930232 0.1875304404646691  F  F  F
0.3204329533908837 0.2855966219797893 0.2879242944063002  F  F  F
0.9153154048453926 0.0542711073299234 0.2289500791817846  F  F  F
0.7981206730308624 0.5641265587777569 0.3097045545447784  F  F  F
0.3458614312896721 0.6609308264577867 0.2908944260918759  F  F  F
0.4957737704733172 0.2836598936294588 0.3311656275847107  F  F  F
0.6615916474244210 0.1167593222771745 0.3464529074001376  F  F  F
0.9189518373574783 0.5801072798222193 0.2942855841455227  F  F  F
0.9722592594038089 0.5458533808878261 0.1006879542452947  F  F  F
0.5123698627425759 0.9832431077900573 0.2656327989051738  F  F  F
0.4024729574845556 0.6657153687243649 0.1135257965681266  F  F  F
0.3838996903341155 0.1456340982168572 0.3286477210780722  F  F  F
0.4770458443946711 0.3675752856448096 0.1880321750568458  F  F  F
0.0212003552964574 0.5057967457489450 0.1661047384952871  F  F  F
0.0832339473481506 0.4895448039335291 0.0993949282564791  F  F  F
0.2059812971062529 0.5797846751407362 0.1871443162747800  F  F  F
0.9815549142904834 0.2570451050258021 0.1372498316129716  F  F  F
0.1967414596733676 0.4875852501134039 0.1341326295564613  F  F  F
0.3664174846861162 0.8921685031139022 0.0760341390061346  F  F  F
0.3087682149259784 0.5377315175650940 0.1537356344291641  F  F  F
0.7408175172579866 0.4022468490098906 0.1168558759182313  F  F  F
0.1552047168018271 0.6961191378634447 0.1155555098791989  F  F  F
0.5614113169543302 0.6118742775357023 0.3286090589226221  F  F  F
0.6127704169908949 0.2921844598553429 0.3025143234384502  F  F  F
0.4535584631659612 0.2498412630357351 0.2185394476199489  F  F  F
0.2568527701506116 0.1770421234198329 0.2838426133601480  F  F  F
0.6859252049373415 0.5962603541434593 0.3351624516347623  F  F  F
0.5315949262544648 0.3292189468868945 0.2516803828912517  F  F  F
0.3958539188732463 0.3591596168999820 0.3276442634091591  F  F  F
0.2989848932751626 0.2093238768088645 0.1437112090527732  F  F  F
0.6006184213107965 0.3865651356550542 0.1768045474022962  F  F  F
0.5374568545361610 0.5108738337022682 0.0702119046403298  F  F  F
0.2387095659531092 0.3895277799763318 0.2208413011938258  F  F  F
0.6404203478633138 0.3833672222381554 0.2494177408167386  F  F  F
0.0389982294663782 0.9626188215339241 0.1130711544008945  F  F  F
0.8540291167515220 0.5843438272596565 0.1718778792786179  F  F  F
0.6917265509915582 0.5709069926304856 0.0736235883798780  F  F  F
0.6284250935647699 0.4949232161714320 0.2115074795027225  F  F  F
0.0711272427583214 0.1768909247619256 0.1182353076552498  F  F  F
0.9084122729463663 0.2678944156216001 0.3765052826946572  F  F  F
0.8362830215185328 0.1144815724412755 0.1012430471807994  F  F  F
0.5000691205472010 0.0786712363922679 0.1229341359852312  F  F  F
0.6310648159392281 0.9506787956205596 0.2630208776706788  F  F  F
0.2305476475949211 0.5998250799799385 0.1110760913671732  F  F  F
0.0696153064145845 0.2293913322819270 0.1891456591575007  F  F  F
0.7626005539206491 0.9400586354136148 0.1521277318930180  F  F  F
0.8216529220721555 0.1918182482065522 0.1617915883867320  F  F  F
0.2235201293504930 0.2583218078865633 0.3356032839402095  F  F  F
0.0249622347607999 0.1117286164508264 0.3543614501589206  F  F  F
0.7250067881136280 0.0617626343329308 0.0936562136439327  F  F  F
0.3039623304053831 0.4153287153470840 0.0846202729358811  F  F  F
0.7787686146867423 0.7878390217709953 0.3228330559061000  F  F  F
0.0734954023750594 0.6035339302237587 0.1292420395777386  F  F  F
0.8589455440562597 0.2158159331116390 0.3150130087043106  F  F  F
0.1263773209809793 0.3466894473849951 0.2173315119198975  F  F  F
0.0417899358063743 0.3275624806001787 0.2728550343577370  F  F  F
0.6580163291954694 0.1627095454518505 0.2723171515113435  F  F  F
0.2286543044947418 0.5066972513629974 0.2485437587425980  F  F  F
0.7425128150861838 0.6598070386562302 0.2769924858191658  F  F  F
0.7436235774887386 0.2505492265642692 0.1159014441392372  F  F  F
0.0070183156207116 0.4999249717612447 0.3103423242951089  F  F  F
0.2172562524365081 0.5869038952351640 0.3591083893578414  F  F  F
0.3190057983032372 0.7849042759346611 0.2882478814424390  F  F  F
0.0982755598237210 0.2622440414551460 0.3290080983329599  F  F  F
0.4108421353127046 0.5567990393266751 0.2686190849694814  F  F  F
0.7413725609241691 0.0182751250519185 0.3563744531153022  F  F  F
0.4192753858439767 0.5361918775773776 0.1899832903558456  F  F  F
0.0460456958964925 0.6926984817553711 0.0769345932910826  F  F  F
0.9954978384077736 0.5414523590948880 0.2371686531566892  F  F  F
0.5201021028092534 0.4596596908236067 0.1407948113715336  F  F  F
0.9908114061040790 0.7857600020637068 0.2079544601163711  F  F  F
0.1681097000740787 0.9534903573877910 0.3163579680686243  F  F  F
0.5577995577421205 0.8419645697925018 0.1531485203180510  F  F  F
0.2208854517499629 0.0552571490387311 0.2810899307598977  F  F  F
0.3416744120540593 0.7331115156694148 0.3560780868305498  F  F  F
0.2871235053537922 0.4952883064803215 0.3871721145802815  F  F  F
0.4671213808228347 0.3638432380980478 0.3900662532194671  F  F  F
0.1510561333062983 0.2751276960031231 0.3991103853884825  F  F  F
0.5964373976710609 0.2585724952757966 0.3774625258593579  F  F  F
0.7261865350765432 0.1042240958007686 0.4119199421170291  F  F  F
0.9001275321759388 0.1360442295683630 0.3694331836920103  F  F  F
0.8418212469490188 0.7628503320523089 0.3882651368687479  F  F  F
0.8796017963853662 0.5394927669300209 0.3652054034407658  F  F  F
0.8667388414031219 0.4082268095972290 0.3723686659200735  F  F  F
0.7729021211289759 0.3916672432917596 0.3176661097916741  F  F  F
0.0065816293481042 0.5360034259029278 0.3829077765519361  F  F  F
0.9945152782472433 0.4116892768627575 0.3669623485794655  F  F  F
0.5429379699285614 0.8645316588439300 0.3548966325618994  F  F  F
0.0796266812577621 0.7604433561948987 0.3595780225999552  F  F  F
0.1508551915299907 0.8745507264639520 0.3725019123855834  F  F  F
0.0331869864114464 0.9830615716003991 0.3516199298884597  F  F  F
0.4286088397465208 0.8248034009980634 0.3725333053710090  F  F  F
0.5214038699628781 0.9919586464564990 0.3452331846211537  F  F  F
0.6596318507975047 0.4449706304443610 0.0620740707422582  F  F  F
0.7770058004695921 0.4207720437156349 0.0425066369619583  F  F  F
0.6870996697415023 0.2037670898433154 0.0521560480036384  F  F  F
0.1295798599581427 0.2874928765907354 0.0522807561388088  F  F  F
0.1822364500623512 0.4972765592286040 0.0552301233421627  F  F  F
0.4371184532802109 0.8480044641447690 0.0201670856659384  F  F  F
0.2106150992467287 0.6701405251346688 0.0464212378458433  F  F  F
0.2625160838697879 0.9444034503363878 0.0503313356003913  F  F  F
0.9027093761302424 0.5779373036444632 0.0392103152355982  F  F  F
0.9083230992255784 0.4574746710782692 0.0594794965594292  F  F  F
0.8216952053277921 0.0085566556962320 0.0575385814324955  F  F  F
0.7818076581856820 0.1223050491498684 0.0339401718831349  F  F  F
0.1688232452780278 0.1623543458140445 0.0712920049869136  F  F  F
0.0248370057004098 0.0292130658696452 0.0475133035574197  F  F  F
0.1298449488235578 0.9669919139664108 0.0573364032235763  F  F  F
0.9588101707595468 0.2794159275003064 0.0599012671046678  F  F  F
0.9456453986476425 0.3692321145087485 0.1162387252217908  F  F  F
0.6127285071281900 0.1025665394296593 0.0694068802230413  F  F  F
0.3525702260928781 0.3843491379761888 0.1167644289899747  F  F  F
0.2187601884462513 0.6692880897545279 0.0939390904025462  F  F  F
0.3105863311708539 0.7199118353246068 0.3127398344263587  F  F  F
0.3567405752226099 0.7262322878943035 0.1060025171730257  F  F  F
0.2906841096338477 0.8555488029652845 0.2978364149225708  F  F  F
0.4476757329878751 0.5728001858961901 0.2276849210193470  F  F  F
0.3975201080843425 0.1040193093584288 0.2895178132336311  F  F  F
0.6272045753355983 0.1866022237427393 0.2309516206037899  F  F  F
0.9169709993974721 0.0408070370398841 0.2759235772601629  F  F  F
0.0711586271397436 0.7723193256173513 0.3118957281776640  F  F  F
0.8217111990405448 0.7361311172558832 0.3454720246254004  F  F  F
0.8156456439747560 0.5305693671774901 0.1471221325631784  F  F  F
0.4139805885224651 0.8347983326468640 0.0648227566428940  F  F  F
0.5316477008489843 0.3888525868888246 0.1569450976964699  F  F  F
0.4680881528979375 0.3536464475961758 0.3432037722488233  F  F  F
0.6555879998115882 0.6756573934321637 0.1791161477878309  F  F  F
0.4661191150999401 0.7135166927257253 0.2083355898883743  F  F  F
0.7724312245603682 0.3977413775940754 0.1599015388693546  F  F  F
0.8540226741148209 0.7768133446688749 0.1334831625903025  F  F  F
0.8573983398462196 0.9231852562202320 0.2493545114037400  F  F  F
0.8671462521177606 0.5363455012003461 0.3176829975525772  F  F  F
0.6195662572370321 0.1306579029663527 0.3083135962950961  F  F  F
0.7748920568105392 0.9964887956520875 0.1839903904680438  F  F  F
0.5969000101429133 0.5601910142079993 0.2272481445393479  F  F  F
0.6218065195185775 0.5656107858887370 0.3178148844698281  F  F  F
0.9607765571606245 0.0788583012396423 0.1942117782213179  F  F  F
0.3286961679524762 0.1465214288377915 0.1248982415907750  F  F  F
0.2888668510462229 0.9135512600596090 0.2146114415896850  F  F  F
0.7438665303757657 0.8792699062459208 0.1251614219110058  F  F  F
0.7677570840706429 0.6948702118356569 0.2380806117025952  F  F  F
0.9475073268468108 0.8448581775067072 0.1934916692498754  F  F  F
0.7279380536859650 0.0923564348837187 0.3645980743664150  F  F  F
0.1578469478069435 0.8793207326214695 0.3249274061415668  F  F  F
0.0747268246703312 0.0063213229596233 0.0808509830530977  F  F  F
0.4667018481479759 0.3236784133646403 0.2265815051605485  F  F  F
0.0464596119031963 0.2600587247860131 0.2945129298241665  F  F  F
0.4773580678044498 0.1774489482593448 0.2245946310366385  F  F  F
0.1989259242006788 0.3251271732272636 0.2204245319057968  F  F  F
0.0906313174240030 0.6566093841189221 0.2639129782519405  F  F  F
0.1329543484199340 0.1343784035693755 0.1097820983558314  F  F  F
0.0409948524953866 0.4960994140193911 0.2113187733231009  F  F  F
0.3837854477802915 0.8172337688927536 0.1783409995438851  F  F  F
0.4740227639317441 0.9813135853758617 0.3074369145147464  F  F  F
0.6359448922669488 0.8754342101710553 0.2552297523671176  F  F  F
0.2645395927808487 0.2772228708628947 0.1445953404817843  F  F  F
0.6494903067327171 0.0534478383920470 0.0970312747296279  F  F  F
0.5829832546779934 0.0095069433315827 0.2588712037224867  F  F  F
0.1556973847388513 0.4657021841545297 0.0956534216391751  F  F  F
0.5429152277694238 0.5232527944908527 0.1170927802541566  F  F  F
0.4646311568625978 0.0111026046268502 0.1189126592964303  F  F  F
0.8089847294710053 0.2601886309568783 0.1393333945493470  F  F  F
0.6883764369388778 0.2610004736443151 0.0839338073855364  F  F  F
0.5666490569861375 0.2541859421740002 0.3335400008333677  F  F  F
0.4738674765012446 0.8474626567479246 0.3374398122149720  F  F  F
0.0655161530277857 0.1734753148100630 0.2212062783709100  F  F  F
0.1576360529289677 0.0141493161284229 0.2883793896197575  F  F  F
0.8450036974925860 0.1205169974817122 0.1486690699917344  F  F  F
0.9911623691259904 0.5601984931038974 0.2831157473924200  F  F  F
0.2957154092235633 0.9161291133499664 0.0894157497260306  F  F  F
0.8538507300947721 0.1434471023983821 0.3307774792845024  F  F  F
0.2581670748043182 0.5259170174198073 0.3471487517993176  F  F  F
0.0315863739171422 0.9557350229341526 0.1604431243664502  F  F  F
0.1576817517698992 0.9661601405117487 0.2038959822236865  F  F  F
0.2632371864423542 0.1105003211623349 0.2614052096491969  F  F  F
0.0381474291347354 0.5363158318811126 0.1239174114954783  F  F  F
0.7912717922845572 0.0746910628997819 0.0718766884134780  F  F  F
0.3572609173755429 0.3527644807837304 0.2866587501642311  F  F  F
0.0806840498611324 0.6780524164202387 0.1190505346982172  F  F  F
0.1834037650879810 0.1040582848604408 0.1902961047489118  F  F  F
0.2750271584096873 0.4452747024778728 0.2432943892998393  F  F  F
0.1505749804107318 0.3152918645232055 0.0949785827822240  F  F  F
0.5404993494109362 0.7737023440595877 0.2779098178036678  F  F  F
0.2521262954501544 0.2510530624632368 0.2917893541524431  F  F  F
0.7196242937992308 0.3991013449743495 0.0708564780517160  F  F  F
0.8701000928106534 0.6573810536720370 0.1832742814580519  F  F  F
0.4957344934336255 0.8746830554919711 0.1351502933811661  F  F  F
0.3717946406262082 0.5919564080308413 0.3034298279752889  F  F  F
0.6479453060661019 0.4212465741069197 0.2075899532599075  F  F  F
0.8477657793089870 0.3988185285331000 0.3252749702347238  F  F  F
0.7639520519032066 0.8206485543914201 0.2808146683876586  F  F  F
0.6272096073401383 0.8228089480014138 0.1690894199956181  F  F  F
0.6067565456720319 0.3159941640947602 0.2572076424951160  F  F  F
0.4713746154925607 0.1458767062520421 0.1378497030435768  F  F  F
0.5462144336018693 0.2645991541812008 0.1048023822520721  F  F  F
0.4782947111936150 0.6580233191306698 0.1237285814385535  F  F  F
0.0276267407219374 0.4769162582488982 0.3539766700052027  F  F  F
0.9093230900846887 0.2693536485013266 0.3280188652328573  F  F  F
0.0376019112946860 0.0496668776197910 0.3279767309273145  F  F  F
0.3368071041220840 0.0107171934621783 0.1569248780847581  F  F  F
0.3600646665221857 0.4943156446965273 0.1757558151634045  F  F  F
0.1588762857239228 0.2890443097958224 0.3524957901504251  F  F  F
0.1524958057105148 0.4303561398554999 0.3266686616920694  F  F  F
0.6798233624998090 0.5760188249713450 0.1212776718531085  F  F  F
0.2350317618996211 0.5506998674138591 0.1467861822592602  F  F  F
0.1763113457928850 0.5527029678612437 0.2278047146638565  F  F  F
0.0078453843952279 0.7143821995933607 0.1940272654529046  F  F  F
0.7517318700127105 0.6228219415445280 0.3181247377066749  F  F  F
0.9390186283320673 0.2952262637261408 0.1052992531586275  F  F  F
0.6488107838679543 0.0673964518466741 0.1887576712149342  F  F  F
0.0822922891737762 0.3800285936028997 0.2502979985786413  F  F  F
0.9088466557623874 0.5304689175880473 0.0765085066414534  F  F  F
0.0549529293978701 0.2407435532718513 0.1430781595668887  F  F  F
0.7323602945943566 0.5834326086426296 0.0636301091559672  F  F  F
0.5670581508214255 0.4798724621278790 0.0601680789043719  F  F  F
0.3091469162217617 0.3986586896699557 0.0583854972742575  F  F  F
0.4504409658526587 0.3490981385927000 0.1026618100430696  F  F  F
0.4664735159998549 0.6038304510759780 0.3310009546313806  F  F  F
0.5579290671237321 0.6250363473364839 0.3561936886148455  F  F  F
0.5773172125780216 0.4699247808696573 0.3311182092412501  F  F  F
0.2018735390500277 0.7149301678969187 0.3049755457522940  F  F  F
0.3346998675965618 0.7043800450305273 0.3780605256206413  F  F  F
0.2221247840201273 0.6258692702167652 0.3438173616357739  F  F  F
0.3020928559993979 0.4525486593227174 0.3856580267512493  F  F  F
0.5219069958575646 0.3956533606707481 0.2944529323619524  F  F  F
0.5043436762781930 0.3815788141300798 0.4036802606782479  F  F  F
0.1387020650584191 0.2331739705005352 0.4065522418994073  F  F  F
0.5801848607409640 0.6890099270761266 0.3085325976803875  F  F  F
0.5897521435098134 0.2960799988004993 0.3930110430153271  F  F  F
0.3926886817505527 0.1900650573476988 0.3272671452796600  F  F  F
0.7021446010636577 0.1397761422176794 0.4211009885135249  F  F  F
0.9025455135067504 0.1746075973361017 0.3849433126554861  F  F  F
0.8934317550078433 0.6805750892657596 0.3096920602288238  F  F  F
0.8187125624736484 0.7980830792969489 0.3986119130521392  F  F  F
0.9228399881085119 0.5457994510163837 0.3745370238569754  F  F  F
0.7515890644937949 0.3527029678021982 0.3232934914620771  F  F  F
0.8591728415565555 0.4511839408388009 0.3814714047757954  F  F  F
0.0223008781552237 0.5357979378839345 0.4095570584828784  F  F  F
0.9484759358104905 0.4112807192015941 0.3706119015813875  F  F  F
0.9627438919767661 0.7577310258959536 0.3101546600993352  F  F  F
0.0790794557203555 0.7175190411756520 0.3687440167452406  F  F  F
0.1303444270042391 0.8360205416023584 0.3809689470135860  F  F  F
0.9811179070545413 0.1191531968919608 0.3620643152577010  F  F  F
0.0649822155144715 0.9725402160796353 0.3707742063144691  F  F  F
0.5491397587584762 0.9096601691224012 0.3582775254156343  F  F  F
0.3940447135724726 0.7955665802123846 0.3669673040016665  F  F  F
0.3603625689460965 0.9059779912859274 0.3351287716503263  F  F  F
0.7198541784713919 0.9878703299946611 0.3725020205542002  F  F  F
0.5516198697676800 0.0255416855633716 0.3415734717701713  F  F  F
0.9334913689193504 0.2986287265007506 0.3903146365702890  F  F  F
0.8197032175561291 0.4249174490825395 0.0521501393351462  F  F  F
0.6714936527034052 0.4894681817836005 0.0604277741653718  F  F  F
0.7258884735742319 0.1830081202240071 0.0432967589718266  F  F  F
0.3109097654546733 0.1041482559654314 0.0653730340321791  F  F  F
0.1407811344060263 0.2429873465190577 0.0499586918119407  F  F  F
0.2274249012631564 0.4963929938563111 0.0524427009294941  F  F  F
0.2529789014517251 0.8194419585285343 0.1012621755443081  F  F  F
0.4794945029083286 0.2754190387860318 0.0539556790668434  F  F  F
0.4531531602195680 0.8134296451344842 0.0048669328718487  F  F  F
0.1729063957943688 0.6520921692215443 0.0354267220930284  F  F  F
0.4135778241010469 0.9725479947171595 0.0666781149568780  F  F  F
0.0098301986031240 0.7200190410244804 0.0789321890373634  F  F  F
0.8853889287990480 0.7982984059852436 0.0722666892897154  F  F  F
0.7014401917382151 0.9291142563791599 0.0756068323652962  F  F  F
0.5249304380205406 0.7332147744260710 0.0888341856438327  F  F  F
0.2183070212187225 0.9562794354454940 0.0532855275402121  F  F  F
0.9285032693343515 0.6152207386901410 0.0396973372837622  F  F  F
0.9332433031252036 0.4493131276034142 0.0362401575767475  F  F  F
0.5953563357026260 0.9628342431967772 0.0946327367671026  F  F  F
0.7979339627644163 0.9705766590000953 0.0644791736445405  F  F  F
0.7796270438614736 0.1027712408237361 0.0083528359393757  F  F  F
0.2147779373315314 0.1562361038319313 0.0715887022783365  F  F  F
0.9824546547334039 0.0389735016812501 0.0556073568265070  F  F  F
0.0027089748052559 0.2836770972387518 0.0529062679416497  F  F  F
0.9318566944185742 0.3992309005101667 0.0963513108512458  F  F  F
0.1143511622580534 0.9389249661420703 0.0372192675644888  F  F  F
0.6352928669657553 0.1411431152461671 0.0617918925371242  F  F  F
0.5136088012690486 0.6873566042743106 0.5366819475429991  T  T  T
0.3364015664159811 0.6422916500752228 0.4617582425874415  T  T  T
0.6136506672947875 0.4430554069605760 0.3990905669394477  T  T  T
0.5298788754234567 0.4095770596952228 0.4989305859364790  T  T  T
0.5436382895685695 0.6467339824760143 0.4547927409451018  T  T  T
0.4464691401757165 0.6043261454219072 0.4126581185078007  T  T  T
0.5273478706496935 0.5214945960907282 0.4488186540049734  T  T  T
0.6201352124878167 0.5758074194086678 0.4417221645807587  T  T  T
0.5103012928094567 0.6875381538312848 0.3964568893883894  T  T  T
0.4591309358501911 0.5941516650715080 0.4803356597217000  T  T  T
0.5537781132486325 0.7100499295975595 0.5097430886455467  T  T  T
0.3406427378047393 0.6259993361975936 0.4236567604486653  T  T  T
0.4820933079364079 0.5115393715628422 0.3889633454529460  T  T  T
0.5851674506149369 0.4236784204609527 0.4323509525948817  T  T  T
0.4977563156621267 0.4637182472515290 0.5041503268834844  T  T  T
